Cu O  H  O  H  O  H  O  H  O  H  O  H  O  H  O  H  O  H  O  H  O  H  O  H  O  H  O  H  O  H  O  H  O  H  O  H  O  H  O  H  O  H  O  H  O  H  O  H  O  H  O  H  O  H  O  H  O  H  O  H  O  H  O  H  O  H  O  H  O  H  O  H  O  H  O  H  O  H  O  H  O  H  O  H  O  H  O  H  O  H  O  H  O  H  O  H  O  H  O  H 
 1.0000000000000000
    10.1403771778044529    0.0000000000000000    0.0000000000000000
     0.0000000000000000    8.7818242399346058    0.0000000000000000
     0.0000000000000000    0.0000000000000000   30.1311271579000000
 Cu  O   H   O   H   O   H   O   H   O   H   O   H   O   H   O   H   O   H   O   H   O   H   O   H   O   H   O   H   O   H   O   H   O   H   O   H   O   H   O   H   O   H   O   H   O   H   O   H   O   H   O   H   O   H   O   H   O   H   O   H   O   H   O   H   O   H   O   H   O   H   O   H   O   H   O   H   O   H   O   H   O   H   O   H   O   H   O   H   O   H   O   H   O   H   O   H   O   H   O   H  
  96   1   2   1   2   1   2   1   2   1   2   1   2   1   2   1   2   1   2   1   2   1   2   1   2   1   2   1   2   1   2   1   1   1   2   1   2   1   3   1   2   1   2   1   2   1   1   1   2   1   2   1   2   1   2   1   2   1   1   1   2   1   3   1   2   1   2   1   2   1   2   1   2   1   2   1   2   1   2   1   2   1   2   1   4   1   2   1   1   1   2   1   2   1   2   1   2   1   2   1   2
Cartesian
  7.0617699999999992  1.0655900000000000  9.9421900000000019
  9.6880500000000005  1.1165200000000000  9.8680700000000012
  2.0302500000000001  1.0279000000000000  9.7905899999999999
  4.3902000000000001  1.0780900000000000 10.0286000000000008
  8.3444800000000008  3.2229100000000002  9.8152500000000025
  0.7080480000000000  3.2210600000000000  9.9431899999999995
  3.2363599999999999  3.3843800000000002 10.0828000000000007
  5.8094200000000003  3.2159000000000000  9.7673400000000026
  9.4953800000000008  5.4792199999999998  9.8526600000000002
  1.8541000000000001  5.3997599999999997  9.9636700000000022
  4.5473100000000004  5.4063799999999995  9.8947100000000017
  7.0073900000000000  5.5140000000000002  9.8006700000000002
  0.5799380000000000  7.6256199999999996  9.9586600000000001
  3.1973699999999994  7.5077699999999998  9.9142899999999994
  5.7306200000000009  7.6649399999999996  9.9761300000000013
  8.3504299999999994  7.6318900000000003  9.8896400000000000
  5.7115900000000002  1.9039699999999999 11.9514000000000014
  8.0980000000000008  1.7520800000000001 11.8992000000000004
  0.6250830000000001  1.7975800000000000 11.9393000000000011
  3.1540400000000002  1.8176000000000001 11.9812999999999992
  7.1017900000000003  3.9463699999999999 11.8481000000000005
  9.6548200000000008  4.0591999999999997 11.9845000000000024
  1.9327399999999999  4.0496200000000000 11.9552999999999994
  4.5779699999999997  4.0576400000000001 11.9615000000000009
  8.2440200000000008  6.1935599999999997 11.9567000000000014
  0.6522939999999999  6.2067300000000003 11.9564000000000004
  3.2373400000000001  6.1637299999999993 11.9431999999999992
  5.7608600000000001  6.2107000000000001 11.8850999999999996
  9.5865799999999997  8.3166799999999999 11.9235000000000024
  1.9217100000000000  8.3230199999999996 11.8806999999999992
  4.4263300000000001  8.4611099999999997 12.0343000000000018
  6.9202299999999992  8.4318700000000000 12.0096000000000007
  5.7039600000000004  0.3659089999999999 14.0306000000000015
  8.2390600000000003  0.3659089999999999 14.0306000000000015
  0.6337739999999999  0.3659089999999999 14.0306000000000015
  3.1688699999999996  0.3659089999999999 14.0306000000000015
  6.9715100000000003  2.5613700000000001 14.0306000000000015
  9.5066000000000006  2.5613700000000001 14.0306000000000015
  1.9013199999999999  2.5613700000000001 14.0306000000000015
  4.4364200000000000  2.5613700000000001 14.0306000000000015
  8.2390600000000003  4.7568199999999994 14.0306000000000015
  0.6337739999999999  4.7568199999999994 14.0306000000000015
  3.1688699999999996  4.7568199999999994 14.0306000000000015
  5.7039600000000004  4.7568199999999994 14.0306000000000015
  9.5066000000000006  6.9522799999999991 14.0306000000000015
  1.9013199999999999  6.9522799999999991 14.0306000000000015
  4.4364200000000000  6.9522799999999991 14.0306000000000015
  6.9715100000000003  6.9522799999999991 14.0306000000000015
  6.9715100000000003  1.0977300000000001 16.1005000000000003
  9.5066000000000006  1.0977300000000001 16.1005000000000003
  1.9013199999999999  1.0977300000000001 16.1005000000000003
  4.4364200000000000  1.0977300000000001 16.1005000000000003
  8.2390600000000003  3.2931800000000000 16.1005000000000003
  0.6337739999999999  3.2931800000000000 16.1005000000000003
  3.1688699999999996  3.2931800000000000 16.1005000000000003
  5.7039600000000004  3.2931800000000000 16.1005000000000003
  9.5066000000000006  5.4886400000000002 16.1005000000000003
  1.9013199999999999  5.4886400000000002 16.1005000000000003
  4.4364200000000000  5.4886400000000002 16.1005000000000003
  6.9715100000000003  5.4886400000000002 16.1005000000000003
  0.6337739999999999  7.6840999999999999 16.1005000000000003
  3.1688699999999996  7.6840999999999999 16.1005000000000003
  5.7039600000000004  7.6840999999999999 16.1005000000000003
  8.2390600000000003  7.6840999999999999 16.1005000000000003
  5.6494599999999995  1.9404300000000001 18.1313999999999993
  8.3640399999999993  1.9012899999999999 18.1615000000000002
  0.7007360000000000  1.8288399999999998 18.3007999999999988
  3.2272099999999995  1.8318800000000000 18.1636000000000024
  6.9476500000000003  4.0533900000000003 18.2423000000000002
  9.5427099999999996  4.0557900000000000 18.2082000000000050
  1.8964700000000001  3.9412500000000001 18.1525999999999996
  4.4356999999999998  4.0784799999999999 18.0376000000000012
  8.2872699999999995  6.3316999999999997 18.1590000000000025
  0.6821829999999999  6.1527500000000002 18.1583000000000041
  3.0913900000000001  6.2433199999999998 18.2677000000000049
  5.7236399999999996  6.1991699999999987 18.0487000000000037
  9.6436299999999999  8.3350299999999997 18.0572000000000017
  2.1071000000000000  8.4153099999999998 18.3186999999999998
  4.5786499999999997  8.4612599999999993 18.3171999999999997
  7.0087799999999998  8.5403900000000004 18.1400000000000006
  5.8386300000000002  0.4176260000000000 20.3065000000000033
  8.4313800000000008  0.2923740000000000 20.1306000000000012
  0.6314600000000000  0.2300860000000000 20.1744000000000021
  3.2385799999999998  0.3202390000000000 20.4059999999999988
  7.1121800000000004  2.7013199999999999 20.1421999999999990
  9.5485299999999995  2.5025599999999999 20.3766999999999996
  1.9876799999999997  2.4742799999999998 20.3128000000000029
  4.5352300000000003  2.5528799999999996 20.1875000000000000
  8.4271300000000000  4.7591399999999995 20.3201000000000001
  0.7144250000000000  4.6838099999999994 20.2624999999999993
  3.3008699999999997  4.5779999999999994 20.1266999999999996
  5.9672400000000003  4.8099900000000000 20.2854999999999990
  9.5683799999999994  6.7782600000000004 20.1437999999999988
  1.7871399999999997  6.8994399999999994 20.2637000000000000
  4.5882100000000001  6.8911499999999997 20.3262999999999998
  7.0448700000000004  6.9644199999999987 20.1487000000000016
  5.2191799999999997  1.5762799999999999 23.9840000000000018
  5.5413399999999999  0.6751260000000000 23.6721000000000039
  5.3113799999999998  1.4044200000000000 24.9232000000000049
  4.5001300000000004  1.1285900000000000  6.7854300000000007
  5.3262299999999998  1.3384100000000001  7.2533600000000007
  3.8225699999999998  1.7867399999999998  7.0062700000000007
  0.8745220000000000  4.2024699999999999  6.2046900000000003
  8.0164700000000000  0.8123899999999998 25.1271999999999984
  0.4727060000000000  4.5805400000000001  6.9977600000000004
  2.0604499999999999  4.0454200000000000 26.3009999999999984
  2.1020699999999999  3.6460800000000000 25.4397000000000020
  1.9102200000000000  4.9749900000000000 26.0684000000000040
  9.9866499999999991  6.2777799999999999 24.3529000000000018
  9.4871200000000009  7.0371199999999998 23.8752999999999993
  9.6751699999999996  5.4117899999999999 24.0393000000000043
  3.3710599999999999  6.4005299999999998  4.0386499999999996
  7.0501500000000004  8.7381261399346073  7.5766300000000006
  2.9051699999999996  5.8242000000000003  3.3820900000000003
  9.6129800000000003  6.1083800000000004  7.6285400000000010
  4.2690700000000001  6.7146600000000003  6.2923700000000009
  8.6928999999999998  6.2954800000000004  7.3441900000000002
  7.1043799999999990  0.9500860000000000  7.8443100000000001
  1.7034499999999999  8.3102599999999995  6.2363900000000001
  7.3193599999999996  1.4985700000000000  7.0852500000000003
  5.6271699999999996  4.4361300000000004  5.7528000000000006
  4.8281400000000003  4.3253199999999996  6.3420900000000007
  5.0367899999999999  1.7366800000000000  4.7804900000000004
  5.2577199999999999  1.9898100000000001  3.8783300000000001
  5.3932500000000010  1.1229100000000001  3.4872500000000004
  3.1477599999999994  0.6477349999999999 27.4423000000000030
  1.6645900000000000  7.3332799999999994  6.3140400000000003
  2.3063199999999999  7.1761999999999997  7.0169800000000011
  7.3266000000000000  5.2597499999999995  0.1376900000000000
  6.1993299999999989  0.5736109999999999 29.0459000000000032
  6.4315799999999994  0.0466666000000000 29.7705000000000020
  6.9266399999999999  1.1375700000000000 28.8263999999999996
  4.1959600000000004  6.9913499999999997  7.1939700000000002
  2.7187700000000001  6.6905599999999996  4.7220000000000013
  4.3855199999999996  7.9291099999999997  7.1097999999999999
  7.9381300000000001  3.2258699999999996  6.0116399999999999
  8.4664699999999993  3.8728099999999999  6.4320500000000012
  7.0063899999999997  3.5241599999999997  5.9963800000000003
  8.2492699999999992  0.6815160000000000 26.0782999999999987
 10.1187988778044531  6.7664999999999997  7.1203200000000013
  9.2283600000000003  0.7521129999999999 26.0707000000000022
  8.9841499999999996  1.1252400000000000  4.5528199999999996
  8.7617700000000003  2.0176200000000000  4.7836100000000012
  3.5852799999999996  3.9395099999999994  7.0035900000000000
  3.4265900000000000  4.0686299999999997  7.9699499999999999
  2.7610300000000003  4.2195700000000000  6.5819800000000006
  0.2648210000000000  5.7171099999999999  3.7070900000000000
  0.8757740000000001  5.7250899999999998  2.9256000000000006
  0.6030240000000000  5.1508299999999991  4.4168599999999998
  1.3306500000000001  2.8531299999999997 23.6520000000000010
  1.5642600000000000  2.0493100000000002 23.1440000000000019
  0.4179300000000000  3.0878199999999998 23.4330999999999996
  9.2898499999999995  1.3256600000000001  3.6325500000000006
  2.3212600000000001  0.5332660000000000 27.9681999999999995
  2.5643099999999999  0.8253230000000000 28.8764000000000038
  2.5201300000000000  4.5787999999999993  1.5527800000000000
  2.0497100000000001  5.3835600000000001  1.5297099999999999
  2.6296399999999998  6.1179399999999999  1.1696599999999999
  5.2279799999999996  4.6262499999999989  4.8446199999999999
  8.1801600000000008  4.0819000000000001  3.1610100000000001
  8.9145500000000002  4.8180899999999998  3.2546499999999998
  7.9629999999999992  3.7551299999999999  4.0868900000000004
  7.7193300000000002  6.1127399999999996 30.0675620579000018
  8.6360600000000005  5.9550799999999997 29.8338000000000001
  0.2947740000000000  3.3408199999999999 28.6804000000000023
  0.1689990000000000  4.2910899999999996 28.7783000000000015
  7.6043200000000004  7.8071299999999990 26.0361000000000047
  6.9980900000000004  7.0425899999999997 25.7579999999999991
  9.3683599999999991  8.7739799999999999 22.5126999999999988
  7.4189599999999993  6.1561100000000000 25.7823999999999991
  8.9386500000000009  8.3976900000000008 23.2824000000000026
  0.7168940000000000  3.1573600000000002 27.8121000000000045
  8.0071999999999992  8.2680100000000003 23.1295000000000002
  4.7413800000000004  0.3691449999999999 26.7749000000000024
  5.3256299999999994  0.6158220000000000 27.5560000000000009
  4.8643599999999996  8.2013800000000003 26.8577000000000012
  0.7304069999999999  1.0933999999999999 26.0096999999999987
  0.9778860000000000  1.8211700000000000 25.4659000000000013
  3.5586399999999996  0.6540089999999998 23.1441000000000017
  2.7446700000000002  0.4519949999999999 22.6468999999999987
  1.6103200000000000  1.1213200000000001  1.1010800000000003
  2.3483100000000001  0.9920959999999999  0.4877500000000001
  1.2494900000000000  1.0570299999999999 26.8541999999999987
  3.1277499999999998  1.4182100000000000  0.8718780000000002
  0.9343010000000000  1.3439700000000001  6.6048200000000001
  0.2166240000000000  1.0827100000000001  5.9478999999999997
  0.6082590000000000  1.5577399999999997  7.4686300000000010
  9.2828300000000006  0.9236219999999999  1.7009099999999999
 10.0648999999999997  1.4640199999999999  2.0536500000000002
  1.8376900000000000  7.7442299999999999 27.3847000000000023
  9.7927099999999996  2.3401600000000000  1.7589999999999999
  1.4130900000000002  6.8749300000000000 27.1971000000000025
  0.7617660000000001  7.1164100000000001 26.4723000000000042
  5.8522800000000004  3.1498300000000001 23.2887000000000022
  0.3682360000000000  5.8365599999999995 29.4700000000000024
  1.0931200000000001  5.7189100000000002  0.0140728421000044
  0.7101499999999999  6.2975000000000003 28.6437999999999988
  1.8004500000000001  6.7765000000000004 22.6359000000000030
  1.0531699999999999  6.6006900000000002 23.3449999999999989
  3.8857799999999996  4.0419499999999999 26.7916999999999987
  4.8212200000000003  4.2016700000000000 27.0245999999999995
  8.5380500000000001  3.8172899999999998 24.5612000000000030
  5.1867700000000001  3.4060700000000002 27.3685000000000045
  8.9380199999999999  3.5904300000000000 23.6715000000000053
  2.3910600000000000  5.9294799999999990 22.6794000000000011
  8.1858599999999999  3.8283200000000002 23.0904000000000025
  6.1534300000000002  7.7050900000000002 23.3298999999999985
  6.4050500000000001  7.3892899999999999 24.2613000000000021
  5.8232999999999997  6.9490199999999991 22.8948999999999998
  3.8313899999999999  3.1600100000000002  1.6945400000000002
  2.4324200000000000  8.2332400000000003 22.7887000000000022
  3.7657799999999999  7.0833199999999996 29.8323000000000036
  3.2960300000000000  7.2538400000000003  0.5553710000000001
  4.7961799999999997  5.8776999999999999 28.2056000000000004
  2.7883300000000002  8.1156000000000006  0.4608010000000000
  5.0914700000000002  6.7010499999999995 28.6293000000000042
  4.5891700000000002  3.6813699999999994  1.2769600000000001
  5.8401300000000003  6.4174100000000003 29.1451000000000029
  6.5248499999999998  3.4844200000000001  1.0127299999999999
  6.5752800000000002  2.6305499999999999  0.5239560000000000
  7.1033099999999996  3.5296099999999999  1.8394300000000001
  1.0749500000000001  3.2862200000000001  6.4461100000000009
  6.5344199999999999  4.3853299999999997 25.8153000000000041
  7.4923200000000003  4.4249700000000001 25.8761000000000045
  5.8317499999999995  7.4991899999999996  3.6152600000000006
  7.7444499999999996  3.7754299999999996 26.6231000000000009
  5.4636300000000002  8.1011799999999994  2.9087900000000007
  4.6025200000000002  7.7102999999999993  2.6763900000000000
  6.1387900000000002  4.0100699999999998 23.0463999999999984
  5.3119300000000003  4.4792899999999998 23.1607000000000021
  4.2377500000000001  2.7151500000000000  2.5747400000000003
  7.6749000000000001  8.7129999999999992  1.4614500000000001
  7.7649900000000001  7.7756400000000001  1.1150899999999999
  6.9765699999999997  8.6054499999999994  2.0868699999999998
  3.3746100000000001  4.7287100000000004 23.3730000000000047
  2.7704799999999996  3.9434900000000002 23.4104999999999990
  3.7419400000000000  4.6951299999999998 22.4629000000000048
  7.8120899999999995  2.5447199999999999 28.0262000000000029
  8.7428000000000008  2.7948199999999996 28.4939999999999998
  8.2445000000000004  2.0434199999999998 27.3508000000000031
  7.4531099999999988  7.2825300000000004  4.4973200000000002
  7.8864099999999997  6.6901099999999998  3.8884400000000001
  7.9302599999999996  8.1343800000000002  4.5539199999999997
  7.1076199999999998  7.1029999999999998  6.9934500000000002
  7.0570700000000004  6.8545299999999996  6.0823100000000005
  6.2696800000000001  6.7174899999999997  7.3719000000000001
