Cu O  H  O  H  O  H  O  H  O  H  O  H  O  H  O  H  O  H  O  H  O  H  O  H  O  H  O  H  O  H  O  H  O  H  O  H  O  H  O  H  O  H  O  H  O  H  O  H  O  H  O  H  O  H  O  H  O  H  O  H  O  H  O  H  O  H  O  H  O  H  O  H  O  H  O  H  O  H  O  H  O  H  O  H  O  H  O  H  O  H  O  H  O  H  O  H  O  H  O  H 
 1.0000000000000000
    10.1403771778044529    0.0000000000000000    0.0000000000000000
     0.0000000000000000    8.7818242399346058    0.0000000000000000
     0.0000000000000000    0.0000000000000000   30.1311271579000000
 Cu  O   H   O   H   O   H   O   H   O   H   O   H   O   H   O   H   O   H   O   H   O   H   O   H   O   H   O   H   O   H   O   H   O   H   O   H   O   H   O   H   O   H   O   H   O   H   O   H   O   H   O   H   O   H   O   H   O   H   O   H   O   H   O   H   O   H   O   H   O   H   O   H   O   H   O   H   O   H   O   H   O   H   O   H   O   H   O   H   O   H   O   H   O   H   O   H   O   H   O   H  
  96   1   2   1   2   1   2   1   2   1   2   1   2   1   2   1   2   1   2   1   2   1   2   1   2   1   2   1   2   1   2   1   1   1   2   1   2   1   3   1   2   1   2   1   2   1   1   1   2   1   2   1   2   1   2   1   2   1   1   1   2   1   3   1   2   1   2   1   2   1   2   1   2   1   2   1   2   1   2   1   2   1   2   1   4   1   2   1   1   1   2   1   2   1   2   1   2   1   2   1   2
Cartesian
  7.0655299999999999  1.0700400000000001  9.9786699999999993
  9.5446200000000001  1.1430300000000000 10.0291999999999994
  1.9917899999999999  1.0851200000000001  9.9753500000000006
  4.4768999999999997  1.0088800000000000  9.9821100000000005
  8.3098600000000005  3.3039399999999999 10.1060999999999996
  0.5987040000000000  3.3563800000000001  9.7763399999999994
  3.2326800000000002  3.0973600000000001 10.0716999999999999
  5.8501500000000002  3.2471700000000001  9.7734799999999993
  9.4738600000000002  5.5022900000000003  9.8879199999999994
  1.9589900000000000  5.4157000000000002  9.7523300000000006
  4.3974200000000003  5.3633800000000003  9.8977000000000004
  6.9511399999999997  5.5939199999999998  9.8977299999999993
  0.6726130000000000  7.8071400000000004  9.8609500000000008
  3.1937400000000000  7.5256400000000001 10.0975999999999999
  5.6003600000000002  7.5793400000000002  9.8229199999999999
  8.2265599999999992  7.6732899999999997  9.9690600000000007
  5.8786800000000001  1.7602599999999999 11.9577000000000009
  8.2308699999999995  1.8930600000000000 12.0647000000000002
  0.6458900000000000  1.8575500000000000 11.8818999999999999
  3.1922600000000001  1.8073699999999999 12.0920000000000005
  6.9346600000000000  4.0341399999999998 11.9619999999999997
  9.5766600000000004  4.0801200000000000 11.9633000000000003
  1.8967799999999999  3.9614799999999999 11.8780999999999999
  4.5610299999999997  3.8006500000000001 11.9480000000000004
  8.2175300000000000  6.2078499999999996 12.0382999999999996
  0.6121529999999999  6.0673500000000002 11.8354999999999997
  3.1346599999999998  6.0103799999999996 11.9352999999999998
  5.5913599999999999  6.2478800000000003 11.9436000000000000
  9.6173800000000007  8.3484499999999997 11.9063999999999997
  1.9081200000000000  8.3983000000000008 12.0243000000000002
  4.5277000000000003  8.3395299999999999 11.9617000000000004
  7.0661399999999999  8.3162599999999998 11.8580000000000005
  5.7039600000000004  0.3659090000000000 14.0305999999999997
  8.2390600000000003  0.3659090000000000 14.0305999999999997
  0.6337739999999999  0.3659090000000000 14.0305999999999997
  3.1688700000000001  0.3659090000000000 14.0305999999999997
  6.9715100000000003  2.5613700000000001 14.0305999999999997
  9.5066000000000006  2.5613700000000001 14.0305999999999997
  1.9013199999999999  2.5613700000000001 14.0305999999999997
  4.4364200000000000  2.5613700000000001 14.0305999999999997
  8.2390600000000003  4.7568200000000003 14.0305999999999997
  0.6337739999999999  4.7568200000000003 14.0305999999999997
  3.1688700000000001  4.7568200000000003 14.0305999999999997
  5.7039600000000004  4.7568200000000003 14.0305999999999997
  9.5066000000000006  6.9522800000000000 14.0305999999999997
  1.9013199999999999  6.9522800000000000 14.0305999999999997
  4.4364200000000000  6.9522800000000000 14.0305999999999997
  6.9715100000000003  6.9522800000000000 14.0305999999999997
  6.9715100000000003  1.0977300000000001 16.1005000000000003
  9.5066000000000006  1.0977300000000001 16.1005000000000003
  1.9013199999999999  1.0977300000000001 16.1005000000000003
  4.4364200000000000  1.0977300000000001 16.1005000000000003
  8.2390600000000003  3.2931800000000000 16.1005000000000003
  0.6337739999999999  3.2931800000000000 16.1005000000000003
  3.1688700000000001  3.2931800000000000 16.1005000000000003
  5.7039600000000004  3.2931800000000000 16.1005000000000003
  9.5066000000000006  5.4886400000000002 16.1005000000000003
  1.9013199999999999  5.4886400000000002 16.1005000000000003
  4.4364200000000000  5.4886400000000002 16.1005000000000003
  6.9715100000000003  5.4886400000000002 16.1005000000000003
  0.6337739999999999  7.6840999999999999 16.1005000000000003
  3.1688700000000001  7.6840999999999999 16.1005000000000003
  5.7039600000000004  7.6840999999999999 16.1005000000000003
  8.2390600000000003  7.6840999999999999 16.1005000000000003
  5.6544100000000004  1.8354999999999999 18.1859000000000002
  8.2375600000000002  1.8379300000000001 18.1860999999999997
  0.7348650000000000  1.8790300000000000 18.0696000000000012
  3.2386400000000002  1.9137000000000000 18.1843000000000004
  7.0427799999999996  4.0199199999999999 18.2251000000000012
  9.6338299999999997  3.9450300000000000 18.0813999999999986
  2.0090200000000000  3.9803700000000002 18.2805000000000000
  4.4638600000000004  3.9384600000000001 18.1583000000000006
  8.2596600000000002  6.2492700000000001 18.2255000000000003
  0.6760000000000000  6.1985599999999996 18.0299000000000014
  3.2204400000000000  6.2516900000000000 18.1158000000000001
  5.6421700000000001  6.1584599999999998 18.2073999999999998
  9.5964600000000004  8.3309200000000008 18.1108000000000011
  2.0012500000000002  8.3410200000000003 18.1269999999999989
  4.5358499999999999  8.4268999999999998 18.1679999999999993
  6.9756499999999999  8.4214900000000004 18.2637999999999998
  5.6289999999999996  0.3365620000000000 20.1815999999999995
  8.2348800000000004  0.3417860000000000 20.1982999999999997
  0.6849530000000000  0.2548290000000000 20.0615999999999985
  3.1813400000000001  0.3763040000000000 20.0971000000000011
  6.9343800000000000  2.4510299999999998 20.1553000000000004
  9.4439799999999998  2.4724100000000000 20.1421999999999990
  1.8241400000000001  2.4011399999999998 20.3000000000000007
  4.3713499999999996  2.5873599999999999 20.3882000000000012
  8.2720400000000005  4.6378100000000000 20.4131999999999998
  0.6763600000000000  4.6485700000000003 20.2610999999999990
  3.1547499999999999  4.6846100000000002 20.2393000000000001
  5.6923100000000000  4.6577999999999999 20.3532000000000011
  9.4088399999999996  6.7630400000000002 20.2562999999999995
  1.9283399999999999  6.9064100000000002 20.2242999999999995
  4.3032300000000001  6.8954399999999998 20.2267000000000010
  6.8218899999999998  6.9453600000000000 20.2054000000000009
  1.0444800000000001  1.4235599999999999 24.1739999999999995
  0.2663450000000000  0.9140330000000000 24.0432999999999986
  1.8168899999999999  0.8300380000000001 24.2456999999999994
  4.5774900000000001  6.5299800000000001  3.1640600000000001
  4.3354999999999997  5.6970599999999996  3.5960600000000000
  3.7322600000000001  6.9304899999999998  3.1343399999999999
  4.5668499999999996  1.3382099999999999  5.7686000000000002
  5.0162800000000001  1.3040300000000000 27.5097999999999985
  3.7561399999999998  1.7320000000000000  5.3983100000000004
  7.8243499999999999  8.6742699999999999 26.6290000000000013
  8.6704100000000004  8.7497399999999992 27.1833999999999989
  7.8091999999999997  7.7936699999999997 26.2017999999999986
  3.9098600000000001  7.0827000000000000 28.7242999999999995
  4.5126700000000000  6.4062900000000003 29.1934000000000005
  4.4980700000000002  7.7704199999999997 28.3318000000000012
  9.2342899999999997  0.7488300000000000  0.1776390000000000
  6.4668000000000001  6.6122699999999996  4.6703000000000001
  9.7625399999999996  0.6776570000000000 29.5257000000000005
  9.6943199999999994  4.2450000000000001 28.2581999999999987
  8.6239799999999995  0.3129020000000000  6.6777800000000003
  0.0235910000000000  5.0112300000000003 27.9075999999999986
  7.2043699999999999  7.1379500000000000  4.3559400000000004
  8.5153999999999996  0.6964430000000000 22.3543999999999983
  7.8635799999999998  7.2209099999999999  5.0897199999999998
  0.0665697000000000  0.3113720000000000 27.7990999999999993
  0.6015940000000000  8.3385099999999994 27.7382999999999988
  7.2923499999999999  5.0912100000000002 26.4496000000000002
  7.2372199999999998  4.3718399999999997 27.1697999999999986
  7.0982200000000004  3.5838600000000000 26.5772000000000013
  0.5034990000000000  6.8075400000000004  6.3552700000000000
  8.7916100000000004  8.7494200000000006 22.9827000000000012
  8.6409000000000002  7.9646499999999998 22.3593000000000011
  0.2398620000000000  1.4798500000000001  5.5621900000000002
  2.3066700000000000  0.0081655800000000  0.0815825000000000
  2.7223700000000002  8.1410499999999999 29.5666000000000011
  3.0582600000000002  0.2039170000000000  0.6573520000000000
  8.7993799999999993  8.1478099999999998  6.6312199999999999
  8.3914600000000004  0.9338070000000001 29.8836000000000013
  8.2731499999999993  7.8057200000000000  7.3781600000000003
  1.1789400000000001  2.6490600000000000 26.8899000000000008
  0.7613570000000000  2.4502400000000000 25.9851999999999990
  0.4939220000000000  3.1752400000000001 27.3963999999999999
  5.3537400000000002  0.4284630000000000 27.5660999999999987
  8.7537900000000004  4.3411600000000004 27.9350999999999985
  6.3161100000000001  0.3869880000000000 27.2962999999999987
  1.9507699999999999  7.1866300000000001  3.3447499999999999
  1.1896899999999999  7.2312900000000004  2.6999000000000000
  5.9409700000000001  3.2433000000000001  7.6011600000000001
  5.3818599999999996  2.5391599999999999  7.0804700000000000
  5.7033300000000002  4.0528899999999997  7.1274199999999999
  6.1107600000000000  5.4209100000000001 23.2855999999999987
  5.3301499999999997  4.9414800000000003 23.6881999999999984
  6.2359099999999996  5.3049600000000003 22.3166000000000011
  1.8450700000000000  3.8462700000000001 23.1859999999999999
  1.3972199999999999  3.0068999999999999 23.1130999999999993
  2.0582099999999999  4.1260000000000003 22.2833000000000006
  1.5323599999999999  7.1376999999999997  4.2925300000000002
  1.1764300000000001  7.1417200000000003  5.8245500000000003
  1.0572999999999999  8.2098099999999992  5.8261399999999997
  4.2405600000000003  1.7895399999999999  1.5560900000000000
  4.5621700000000001  0.9121939999999999  1.2433000000000001
  5.2941300000000000  0.8991520000000000  1.9175599999999999
  0.6259390000000000  1.0150200000000000 27.4466999999999999
  4.4849899999999998  4.5662900000000004 27.0788000000000011
  4.1113299999999997  3.9157600000000001 27.7057000000000002
  5.4461700000000004  4.5034299999999998 27.2482000000000006
  0.9945150000000000  0.8659080000000000  5.3522100000000004
  0.9099140000000000  0.8528260000000000  4.3778400000000000
  0.3628830000000000  7.2381599999999997  0.9369510000000000
  9.8053000000000008  7.8902599999999996  0.7345970000000001
  2.0800500000000000  7.8398000000000003 22.3120000000000012
  2.2221799999999998  7.6356900000000003 23.2449000000000012
  4.8407400000000003  3.8241600000000000  1.5631699999999999
  3.1534599999999999  7.9482100000000004 23.4076999999999984
  4.0557800000000004  3.3641700000000001  1.9063800000000000
  1.1586000000000001  7.8022400000000003  0.7136120000000000
  3.2585700000000002  3.9410599999999998  1.8538399999999999
  3.5499000000000001  4.0469099999999996  4.5150499999999996
  3.7994300000000001  3.8197800000000002  3.5617200000000002
  2.5859100000000002  4.0152900000000002  4.4588700000000001
  2.1224300000000000  4.8947799999999999  1.6547799999999999
  2.3715199999999999  5.3848700000000003  0.8693370000000000
  4.6690699999999996  0.7031740000000000 24.6746000000000016
  3.8239100000000001  1.2059500000000001 24.9618000000000002
  7.3260399999999999  1.3663000000000001 25.7575000000000003
  6.9875200000000000  2.2269399999999999 25.5095999999999989
  2.1544500000000002  5.6026899999999999  2.3527499999999999
  7.4234499999999999  2.5021399999999998 24.7053000000000011
  0.7127830000000001  1.2262200000000001  2.3786399999999999
  9.9706399999999995  1.5986199999999999  2.2081400000000002
  0.9978730000000000  0.7316319999999999  1.5402000000000000
  8.7980999999999998  2.2761200000000001  7.9510500000000004
  8.5912699999999997  2.1932200000000002  6.9904900000000003
  9.7323900000000005  6.4431399999999996  2.1860900000000001
  7.6213199999999999  2.2388900000000000  6.9696100000000003
  9.0296000000000003  5.7931499999999998  2.5318999999999998
  8.4040599999999994  6.2883699999999996  3.0091000000000001
  3.2873700000000001  4.1471299999999998 24.1573999999999991
  3.8352200000000001  7.5790600000000001  6.9654499999999997
  3.7312300000000000  7.8322200000000004  7.9030600000000000
  3.0137399999999999  7.3149800000000003  6.5612500000000002
  5.5112800000000002  8.4752600000000005 23.0961999999999996
  5.5427700000000000  7.4911099999999999 23.1232000000000006
  2.1708300000000000  6.3303599999999998 27.5467000000000013
  1.2686500000000001  6.4440200000000001 27.4093000000000018
  1.8569800000000001  4.2472599999999998  7.6736500000000003
  1.0504599999999999  6.2098500000000003 26.4864999999999995
  1.0808100000000000  3.6527099999999999  7.7923299999999998
  6.3589399999999996  0.1495330000000000 23.1250000000000000
  0.3233790000000000  3.9252099999999999  7.2574199999999998
  8.5603599999999993  2.5137299999999998  2.4979499999999999
  7.8545600000000002  1.9351000000000000  2.8761500000000000
  8.2046700000000001  2.9466100000000002  1.6811000000000000
  8.1388499999999997  4.2667099999999998  0.4544750000000000
  4.0999999999999996  2.1030000000000002 24.7516999999999996
  4.8729300000000002  6.3434100000000004  6.5606700000000000
  5.5267799999999996  5.6844200000000003  6.1782300000000001
  0.2431400000000000  4.4392399999999999  3.5955200000000000
  4.8830400000000003  5.1186699999999998  5.6765400000000001
  0.6706310000000000  3.8136199999999998  4.2306100000000004
  8.5431000000000008  4.7499700000000002  1.1813199999999999
  0.7137070000000000  2.9662000000000002  3.6835300000000002
  3.5323000000000002  2.3736999999999999 28.3426000000000009
  2.6663000000000001  2.2814100000000002 27.9432000000000009
  3.5431300000000001  1.8594999999999999 29.1534000000000013
  4.2013999999999996  0.5018410000000000  6.0362099999999996
  1.0739300000000001  6.5620300000000000 24.1505000000000010
  0.5784200000000000  5.9284800000000004 24.6890999999999998
  6.2768499999999996  1.6913499999999999  0.2223350000000000
  0.8912570000000000  5.0688399999999998 24.3390999999999984
  6.7236500000000001  1.5498900000000000 29.4390000000000001
  6.1298100000000000  0.9188390000000000 28.9695000000000000
  4.1330099999999996  4.2078899999999999 24.5934999999999988
  4.2291900000000000  4.1494600000000004 25.5774000000000008
  8.9022100000000002  4.1848500000000000 29.9227999999999987
  9.4083000000000006  5.0767600000000002  6.0882600000000000
  9.6767299999999992  4.4985900000000001  5.3837000000000002
  8.4362200000000005  4.9714600000000004  6.2265499999999996
  8.4636399999999998  3.4832900000000002 23.6996000000000002
  8.0626999999999995  3.3543300000000000 22.7725000000000009
  9.3982700000000001  3.7366600000000001 23.5750999999999991
  7.7431000000000001  6.3455700000000004 25.1631000000000000
  8.6658799999999996  6.1772999999999998 24.9927999999999990
  7.2529500000000002  6.1789199999999997 24.3304000000000009
  5.6963299999999997  5.5790800000000003  0.7586950000000000
  6.5795199999999996  5.3268199999999997  0.5086000000000001
  5.7537500000000001  6.1161199999999996  1.6093900000000001
  6.5151599999999998  0.7834510000000000  3.6017700000000001
  6.7963399999999998  8.6624199999999991  3.8584900000000002
  6.0540399999999996  1.1670100000000001  4.3599399999999999
