Cu O  H  O  H  O  H  O  H  O  H  O  H  O  H  O  H  O  H  O  H  O  H  O  H  O  H  O  H  O  H  O  H  O  H  O  H  O  H  O  H  O  H  O  H  O  H  O  H  O  H  O  H  O  H  O  H  O  H  O  H  O  H  O  H  O  H  O  H  O  H  O  H  O  H  O  H  O  H  O  H  O  H  O  H  O  H  O  H  O  H  O  H  O  H  O  H  O  H  O  H 
 1.0000000000000000
    10.1403771778044529    0.0000000000000000    0.0000000000000000
     0.0000000000000000    8.7818242399346058    0.0000000000000000
     0.0000000000000000    0.0000000000000000   30.1311271579000000
 Cu  O   H   O   H   O   H   O   H   O   H   O   H   O   H   O   H   O   H   O   H   O   H   O   H   O   H   O   H   O   H   O   H   O   H   O   H   O   H   O   H   O   H   O   H   O   H   O   H   O   H   O   H   O   H   O   H   O   H   O   H   O   H   O   H   O   H   O   H   O   H   O   H   O   H   O   H   O   H   O   H   O   H   O   H   O   H   O   H   O   H   O   H   O   H   O   H   O   H   O   H  
  96   1   2   1   2   1   2   1   2   1   2   1   2   1   2   1   2   1   2   1   2   1   2   1   2   1   2   1   2   1   2   1   1   1   2   1   2   1   3   1   2   1   2   1   2   1   1   1   2   1   2   1   2   1   2   1   2   1   1   1   2   1   3   1   2   1   2   1   2   1   2   1   2   1   2   1   2   1   2   1   2   1   2   1   4   1   2   1   1   1   2   1   2   1   2   1   2   1   2   1   2
Cartesian
  6.8225800000000003  1.0337799999999999  9.8696500000000000
  9.3514199999999992  1.0828199999999999 10.0320999999999998
  2.0099800000000001  0.9485080000000000  9.7879299999999994
  4.3558100000000000  1.0778600000000000  9.9556699999999996
  8.1066400000000005  3.1980100000000000  9.9319500000000005
  0.6569910000000000  3.1795300000000002  9.9613200000000006
  3.2333900000000000  3.2978499999999999  9.7927800000000005
  5.7570399999999999  3.3402300000000000  9.9108000000000001
  9.5355200000000000  5.3790199999999997  9.8587799999999994
  1.8796500000000000  5.5733800000000002  9.9655900000000006
  4.4717900000000004  5.4110699999999996  9.8501899999999996
  7.0091999999999999  5.4493900000000002  9.8837799999999998
  0.5681020000000000  7.7490899999999998  9.9165200000000002
  3.3292199999999998  7.6427699999999996  9.9202700000000004
  5.7194399999999996  7.5906300000000000  9.9125099999999993
  8.0868500000000001  7.6264099999999999  9.9081399999999995
  5.6094299999999997  1.8951400000000000 12.0897000000000006
  8.0427300000000006  1.7412000000000001 11.9726999999999997
  0.5058700000000000  1.7603899999999999 12.0074000000000005
  3.0702300000000000  1.7889400000000000 12.0214999999999996
  6.9462900000000003  3.9661700000000000 12.0382999999999996
  9.4522200000000005  4.1027399999999998 11.9360999999999997
  1.7512000000000001  3.9463200000000001 11.9136000000000006
  4.4411100000000001  4.0061900000000001 11.9809000000000001
  8.1718499999999992  6.2277600000000000 12.0063999999999993
  0.5451200000000000  6.2389999999999999 12.1816999999999993
  3.1922000000000001  6.1535700000000002 11.9344000000000001
  5.7095399999999996  6.1592500000000001 12.0222999999999995
  9.4056099999999994  8.4610599999999998 11.9566999999999997
  1.9463800000000000  8.4622600000000006 11.8916000000000004
  4.5223300000000002  8.3748400000000007 11.9773999999999994
  6.9391299999999996  8.3484999999999996 11.8736999999999995
  5.7039600000000004  0.3659090000000000 14.0305999999999997
  8.2390600000000003  0.3659090000000000 14.0305999999999997
  0.6337739999999999  0.3659090000000000 14.0305999999999997
  3.1688700000000001  0.3659090000000000 14.0305999999999997
  6.9715100000000003  2.5613700000000001 14.0305999999999997
  9.5066000000000006  2.5613700000000001 14.0305999999999997
  1.9013199999999999  2.5613700000000001 14.0305999999999997
  4.4364200000000000  2.5613700000000001 14.0305999999999997
  8.2390600000000003  4.7568200000000003 14.0305999999999997
  0.6337739999999999  4.7568200000000003 14.0305999999999997
  3.1688700000000001  4.7568200000000003 14.0305999999999997
  5.7039600000000004  4.7568200000000003 14.0305999999999997
  9.5066000000000006  6.9522800000000000 14.0305999999999997
  1.9013199999999999  6.9522800000000000 14.0305999999999997
  4.4364200000000000  6.9522800000000000 14.0305999999999997
  6.9715100000000003  6.9522800000000000 14.0305999999999997
  6.9715100000000003  1.0977300000000001 16.1005000000000003
  9.5066000000000006  1.0977300000000001 16.1005000000000003
  1.9013199999999999  1.0977300000000001 16.1005000000000003
  4.4364200000000000  1.0977300000000001 16.1005000000000003
  8.2390600000000003  3.2931800000000000 16.1005000000000003
  0.6337739999999999  3.2931800000000000 16.1005000000000003
  3.1688700000000001  3.2931800000000000 16.1005000000000003
  5.7039600000000004  3.2931800000000000 16.1005000000000003
  9.5066000000000006  5.4886400000000002 16.1005000000000003
  1.9013199999999999  5.4886400000000002 16.1005000000000003
  4.4364200000000000  5.4886400000000002 16.1005000000000003
  6.9715100000000003  5.4886400000000002 16.1005000000000003
  0.6337739999999999  7.6840999999999999 16.1005000000000003
  3.1688700000000001  7.6840999999999999 16.1005000000000003
  5.7039600000000004  7.6840999999999999 16.1005000000000003
  8.2390600000000003  7.6840999999999999 16.1005000000000003
  5.7224199999999996  1.7385600000000001 18.1801999999999992
  8.1280800000000006  1.8426199999999999 18.0802000000000014
  0.5868260000000000  1.8252600000000001 18.0933999999999990
  3.1273399999999998  1.9286300000000001 18.2663000000000011
  6.8896499999999996  4.0018399999999996 18.1869000000000014
  9.4900199999999995  3.9738000000000002 18.1922999999999995
  1.9121900000000001  4.0188800000000002 18.1957999999999984
  4.5369400000000004  4.0379600000000000 18.3295999999999992
  8.3111400000000000  6.0737100000000002 18.1261000000000010
  0.6248010000000001  6.2796399999999997 18.2184999999999988
  3.0773299999999999  6.2802300000000004 18.0786000000000016
  5.6644600000000001  6.1227400000000003 18.2453000000000003
  9.6429200000000002  8.4007000000000005 18.0713000000000008
  2.0384199999999999  8.4152299999999993 18.1986999999999988
  4.5720299999999998  8.2527299999999997 18.1906999999999996
  6.9579500000000003  8.4059000000000008 18.2664000000000009
  5.7057500000000001  0.3291780000000000 20.1746000000000016
  8.2872800000000009  0.3832740000000000 20.3462999999999994
  0.6623940000000000  0.4667360000000000 20.0865000000000009
  3.1971300000000000  0.1905330000000000 20.2558000000000007
  7.0212899999999996  2.4345400000000001 20.2542000000000009
  9.5143000000000004  2.6362600000000000 20.2198999999999991
  1.8263300000000000  2.6032400000000000 20.2151999999999994
  4.4174699999999998  2.4497900000000001 20.4019000000000013
  8.2933199999999996  4.6165599999999998 20.1617999999999995
  0.6727959999999999  4.6765299999999996 20.2334999999999994
  3.1457799999999998  4.5983099999999997 20.3367000000000004
  5.8308200000000001  4.6069000000000004 20.3622000000000014
  9.3954299999999993  6.9522899999999996 20.0404000000000018
  1.9013899999999999  6.8875999999999999 20.1861999999999995
  4.4095899999999997  6.8446999999999996 20.2197999999999993
  6.9756200000000002  6.8372000000000002 20.1846999999999994
  9.4815100000000001  5.6855799999999999 23.1222999999999992
  0.1234950000000000  5.7422100000000000 22.6207999999999991
  8.7938299999999998  5.3711799999999998 22.4986999999999995
  7.3101500000000001  1.0802000000000000 23.6006000000000000
  7.0128899999999996  1.0234500000000000 22.6834999999999987
  8.2631599999999992  1.1336999999999999 23.4865999999999993
  5.5304599999999997  8.5063200000000005  1.0171500000000000
  4.4812799999999999  6.6830600000000002 27.8997999999999990
  4.9957399999999996  0.5016860000000000  0.7185560000000000
  6.4907100000000000  1.8882600000000000 27.1029000000000018
  7.4365300000000003  1.8372500000000000 27.0770000000000017
  6.2728299999999999  2.6602199999999998 26.5396999999999998
  6.1768599999999996  6.5987600000000004 23.4818999999999996
  5.4717399999999996  6.0406000000000004 23.1543999999999990
  6.2457099999999999  7.3538199999999998 22.8689000000000000
  8.1829099999999997  2.9651200000000002  1.9067099999999999
  0.5387880000000000  8.7242099999999994 25.1803999999999988
  7.3650000000000002  2.6128499999999999  2.1781999999999999
  0.1108750000000000  1.1700800000000000 23.5975999999999999
  7.1685100000000004  7.7452800000000002 28.2592999999999996
  0.5587830000000000  1.1616200000000001 22.7316000000000003
  0.5516470000000000  0.0405825000000000 26.1569000000000003
  3.8588600000000000  7.6941199999999998  3.3228200000000001
  0.4960540000000000  7.8703000000000003 26.4548999999999985
  6.7631300000000003  8.0556099999999997 26.6985999999999990
  6.8548999999999998  7.5562100000000001 25.9060999999999986
  2.4331100000000001  0.7108120000000000 26.5003999999999991
  3.3666499999999999  0.6933670000000000 26.8229000000000006
  3.5054300000000000  1.5883100000000001 27.2470999999999997
  0.1921130000000000  1.3681000000000001  4.0886699999999996
  4.4815699999999996  7.7168700000000001  4.0460399999999996
  4.4574499999999997  8.6067999999999998  4.4686700000000004
  0.8119060000000000  6.9827599999999999  6.3795500000000001
  6.1968699999999997  1.9048900000000000  3.1885800000000000
  6.1629399999999999  2.0324900000000001  4.1328199999999997
  5.4737000000000000  2.4166699999999999  2.9079700000000002
  7.5597000000000003  7.8327600000000004 29.1386000000000003
  8.7284900000000007  3.0890399999999998  2.6640000000000001
  6.8412400000000000  7.9635999999999996 29.7878000000000007
  7.9727600000000001  8.1746400000000001  2.7179400000000000
  7.1423600000000000  8.3783300000000001  2.2558900000000000
  7.9106399999999999  8.2198600000000006  3.6851900000000000
  3.6225100000000001  7.1284700000000001 28.1011999999999986
  0.2249810000000000  2.0006300000000001 24.0794999999999995
  3.6513900000000001  7.9402799999999996 27.6294000000000004
  2.3118799999999999  5.9924700000000000  5.5716200000000002
  3.1385999999999998  6.4668400000000004  5.5647599999999997
  1.2435400000000001 -0.0061258500000000 29.6433000000000000
  0.4086910000000000  0.4096490000000000 29.9343000000000004
  1.1005600000000000  7.9689699999999997 30.0760000000000005
  3.0511400000000002  8.5713699999999999  6.8822299999999998
  2.9622799999999998 -0.0785641000000000  7.8599800000000002
  3.9513300000000000  8.2186400000000006  6.9064300000000003
  2.2632400000000001  5.0417600000000000 27.0181000000000004
  2.6588900000000000  5.9100599999999996 27.3115999999999985
  1.3654400000000000  5.2191500000000000 26.7989999999999995
  2.5951800000000000  5.1853100000000003  6.0567000000000002
  0.7000740000000000  0.9770330000000000  3.3613300000000002
 -0.0247658000000000  0.4483290000000000  2.9459700000000000
  1.8687900000000000  0.8660610000000000  6.3103300000000004
  1.1499900000000001  1.5039000000000000  6.2519099999999996
  0.7320950000000001  1.4806500000000000  7.1318700000000002
  6.7024100000000004  0.2208790000000000 26.5423000000000009
  3.2284000000000002  1.5470500000000000  0.4037910000000000
  3.2340399999999998  1.8179000000000001  1.3003100000000001
  2.4457800000000001  1.0292600000000001  0.2643800000000000
  0.0783314000000000  7.5046900000000001  6.7338300000000002
 -0.0172901000000000  7.3759600000000001  7.6983400000000000
  1.5116000000000001  6.0457700000000001  1.0062800000000001
  2.4321000000000002  6.2605500000000003  0.8028270000000000
  3.1230099999999998  2.8331000000000000 29.0117000000000012
  3.5464199999999999  3.2003499999999998 28.2619000000000007
  7.6022499999999997  4.4100500000000000  1.1979400000000000
  2.9556300000000002  3.7831100000000002 27.7488999999999990
  7.1758300000000004  5.0942200000000000  0.6741300000000000
  1.4979100000000001  5.5425700000000004  1.8840399999999999
  7.8879999999999999  5.5061000000000000  0.1509320000000000
  5.6409500000000001  4.7492299999999998 28.1378999999999984
  6.2164700000000002  4.7852300000000003 28.9454999999999991
  4.9347000000000003  4.0792799999999998 28.3856000000000002
  1.6086300000000000  4.7441199999999997  3.3519199999999998
  0.8929580000000000  4.3353700000000002  3.8510700000000000
  7.2170100000000001  5.0017699999999996 25.2627999999999986
  7.4535799999999997  5.5480600000000004 25.9498999999999995
  9.5056799999999999  1.9391200000000000 28.4435000000000002
  9.4823100000000000  2.0365000000000002 27.5111999999999988
  2.0671300000000001  5.2864599999999999  3.9983499999999998
  9.9749700000000008  1.3085100000000001 27.1252999999999993
  5.0150499999999996  5.7761899999999997  6.3940200000000003
  5.2827599999999997  6.6882599999999996  6.5792599999999997
  5.1915399999999998  5.3979499999999998  7.2962499999999997
  3.9641899999999999  1.5971200000000001 23.1866999999999983
  4.0825300000000002  2.2563700000000000 22.4918000000000013
  8.4981700000000000  4.1531700000000003  7.7347700000000001
  4.0434000000000001  3.1053700000000002 23.0126999999999988
  8.2718500000000006  4.3564299999999996  6.7995299999999999
  8.8664299999999994  5.0014599999999998  6.4941300000000002
  4.0613700000000001  0.3379120000000000 25.3198000000000008
  7.9982699999999998  7.6593400000000003  5.4066000000000001
  7.2381099999999998  7.9811199999999998  6.0601099999999999
  8.8653999999999993  7.6673999999999998  5.9086699999999999
  9.9300800000000002  5.5822599999999998 27.0431999999999988
  9.0092099999999995  5.5855199999999998 26.6508000000000003
  6.6139200000000002  2.7031700000000001 24.1885000000000012
  6.3444000000000003  3.3582900000000002 24.8026000000000018
  3.1965800000000000  6.2812500000000000 22.3111999999999995
  5.4253299999999998  3.7227800000000002 24.5619000000000014
  3.2253799999999999  6.3369999999999997 23.2623999999999995
  9.7149599999999996  5.8580500000000004 28.0091999999999999
  3.3844400000000001  7.2186100000000000 23.5971000000000011
  5.9854900000000004  8.7359200000000001  6.7946999999999997
  6.1336100000000000  8.4900199999999995  7.7389999999999999
  6.1379200000000003  0.9425040000000000  6.7470600000000003
  9.6104099999999999  6.0038999999999998 29.4751000000000012
  6.8253199999999996  5.2563700000000004 26.7017999999999986
  9.5295600000000000  3.0741499999999999  5.4236500000000003
  9.7194299999999991  3.3422000000000001  4.5343799999999996
  8.5848499999999994  1.7815300000000001  0.7925920000000000
  9.0601400000000005  4.0539800000000001  4.4356400000000002
  8.9102099999999993  1.1689099999999999  0.1217720000000000
  0.1234650000000000  6.2272900000000000 30.2656999999999989
  8.1553699999999996  0.6606460000000000 29.8944000000000010
  9.9761399999999991  3.4590399999999999 25.0686999999999998
  9.7333400000000001  3.3587899999999999 25.9868999999999986
 10.0836000000000006  4.3687699999999996 24.8573999999999984
  4.9617399999999998  7.6336100000000000  0.9518830000000000
  3.5916299999999999  4.9435200000000004 24.1722000000000001
  3.7054100000000001  4.0048899999999996 24.4721000000000011
  3.2034199999999999  3.6124900000000002  7.3513999999999999
  3.2713700000000001  4.1473199999999997 25.2925000000000004
  3.2234200000000000  3.5761799999999999  6.3736300000000004
  2.4511400000000001  2.9899399999999998  6.1612700000000000
  4.2085699999999999  0.1640110000000000 24.3616999999999990
  5.0544300000000000  8.5574700000000004 24.2374000000000009
  9.0324600000000004  6.7795399999999999 29.5887999999999991
  8.0873799999999996  5.4500099999999998  3.7902999999999998
  8.1374800000000000  6.0477999999999996  4.5888000000000000
  8.0189500000000002  6.0790199999999999  2.9857000000000000
  6.0235099999999999  2.6186099999999999  5.8962000000000003
  6.7147500000000004  3.1547999999999998  6.2810699999999997
  5.1950000000000003  3.0523400000000001  5.9840299999999997
  3.3387600000000002  2.6286499999999999  3.0945100000000001
  2.9841700000000002  3.4711699999999999  3.2121000000000000
  2.6319200000000000  2.0439500000000002  3.2788400000000002
  5.3621400000000001  5.3097799999999999  3.3889399999999998
  5.0439699999999998  5.7988600000000003  4.1492300000000002
  6.2936199999999998  5.0618600000000002  3.6059899999999998
  4.3604799999999999  6.0180199999999999  0.8605660000000001
  4.6955200000000001  5.6651999999999996  1.7307100000000000
  4.8766699999999998  5.7503000000000002  0.1179880000000000
