Cu  O  H  O  H  O  H  O  H  O  H  O  H  O  H  O  H  O  H  O  H  O  H  O  H  O  H  O  H  O  H  O  H  O  H  O  H  O  H  O  H  O  H  O  H  O  H  O  H  O  H  O  H  O  H  O  H  O  H  O  H  O  H  O  H  O  H  O  H  O  H  O  H  O  H  O  H  O  H  O  H  O  H  O  H  O  H  O  H  O  H  O  H  O  H  O  H  O  H  O  H 
 1.0000000000000000
    10.1403771778044529    0.0000000000000000    0.0000000000000000
     0.0000000000000000    8.7818242399346058    0.0000000000000000
     0.0000000000000000    0.0000000000000000   30.1311271579000000
 Cu  O   H   O   H   O   H   O   H   O   H   O   H   O   H   O   H   O   H   O   H   O   H   O   H   O   H   O   H   O   H   O   H   O   H   O   H   O   H   O   H   O   H   O   H   O   H   O   H   O   H   O   H   O   H   O   H   O   H   O   H   O   H   O   H   O   H   O   H   O   H   O   H   O   H   O   H   O   H   O   H   O   H   O   H   O   H   O   H   O   H   O   H   O   H   O   H   O   H   O   H  
  96   1   2   1   2   1   2   1   2   1   2   1   2   1   2   1   2   1   2   1   2   1   2   1   2   1   2   1   2   1   2   1   1   1   2   1   2   1   3   1   2   1   2   1   2   1   1   1   2   1   2   1   2   1   2   1   2   1   1   1   2   1   3   1   2   1   2   1   2   1   2   1   2   1   2   1   2   1   2   1   2   1   2   1   4   1   2   1   1   1   2   1   2   1   2   1   2   1   2   1   2
Cartesian
  6.8827999999999996  1.1733100000000001  9.9058899999999994
  9.4744399999999995  1.0836500000000000 10.0389999999999997
  1.8554200000000001  1.1528499999999999  9.7545199999999994
  4.3377999999999997  1.1094900000000001  9.8918400000000002
  8.2071799999999993  3.2543099999999998  9.9630600000000005
  0.6465370000000000  3.2408000000000001  9.8746200000000002
  3.1520199999999998  3.3631199999999999  9.9436999999999998
  5.6207399999999996  3.4850200000000000 10.0113000000000003
  9.4053100000000001  5.5163700000000002  9.9147200000000009
  1.8120499999999999  5.4415699999999996  9.9662600000000001
  4.2650600000000001  5.6243200000000000  9.8232499999999998
  6.8980100000000002  5.5028400000000000  9.9538200000000003
  0.6340150000000000  7.6897599999999997 10.1273000000000000
  3.1698000000000000  7.7941500000000001  9.7882999999999996
  5.6526899999999998  7.6801100000000000 10.1387000000000000
  8.1034400000000009  7.7652999999999999  9.9808299999999992
  5.7016600000000004  1.9047499999999999 12.0555000000000003
  8.2001000000000008  1.6929000000000001 11.9452999999999996
  0.6683230000000000  1.8654700000000000 11.9090000000000007
  3.1059100000000002  1.8569199999999999 11.9631000000000007
  7.0997000000000003  3.9839300000000000 11.9286999999999992
  9.4562700000000000  3.9796900000000002 11.9533000000000005
  1.9112300000000000  3.9873699999999999 12.0336999999999996
  4.4102499999999996  4.0603600000000002 12.0561000000000007
  8.2537699999999994  6.2125800000000000 11.8709000000000007
  0.7217060000000000  6.1088399999999998 12.0066000000000006
  3.1763699999999999  6.3134300000000003 11.9083000000000006
  5.7022599999999999  6.1921999999999997 11.8702000000000005
  9.4910700000000006  8.4563500000000005 11.9700000000000006
  2.0265100000000000  8.4592299999999998 12.0250000000000004
  4.4275700000000002  8.3884500000000006 11.9276000000000000
  6.9590800000000002  8.3025300000000009 12.0901999999999994
  5.7039600000000004  0.3659090000000000 14.0305999999999997
  8.2390600000000003  0.3659090000000000 14.0305999999999997
  0.6337739999999999  0.3659090000000000 14.0305999999999997
  3.1688700000000001  0.3659090000000000 14.0305999999999997
  6.9715100000000003  2.5613700000000001 14.0305999999999997
  9.5066000000000006  2.5613700000000001 14.0305999999999997
  1.9013199999999999  2.5613700000000001 14.0305999999999997
  4.4364200000000000  2.5613700000000001 14.0305999999999997
  8.2390600000000003  4.7568200000000003 14.0305999999999997
  0.6337739999999999  4.7568200000000003 14.0305999999999997
  3.1688700000000001  4.7568200000000003 14.0305999999999997
  5.7039600000000004  4.7568200000000003 14.0305999999999997
  9.5066000000000006  6.9522800000000000 14.0305999999999997
  1.9013199999999999  6.9522800000000000 14.0305999999999997
  4.4364200000000000  6.9522800000000000 14.0305999999999997
  6.9715100000000003  6.9522800000000000 14.0305999999999997
  6.9715100000000003  1.0977300000000001 16.1005000000000003
  9.5066000000000006  1.0977300000000001 16.1005000000000003
  1.9013199999999999  1.0977300000000001 16.1005000000000003
  4.4364200000000000  1.0977300000000001 16.1005000000000003
  8.2390600000000003  3.2931800000000000 16.1005000000000003
  0.6337739999999999  3.2931800000000000 16.1005000000000003
  3.1688700000000001  3.2931800000000000 16.1005000000000003
  5.7039600000000004  3.2931800000000000 16.1005000000000003
  9.5066000000000006  5.4886400000000002 16.1005000000000003
  1.9013199999999999  5.4886400000000002 16.1005000000000003
  4.4364200000000000  5.4886400000000002 16.1005000000000003
  6.9715100000000003  5.4886400000000002 16.1005000000000003
  0.6337739999999999  7.6840999999999999 16.1005000000000003
  3.1688700000000001  7.6840999999999999 16.1005000000000003
  5.7039600000000004  7.6840999999999999 16.1005000000000003
  8.2390600000000003  7.6840999999999999 16.1005000000000003
  5.6322500000000000  1.7931200000000000 18.2027000000000001
  8.2301699999999993  1.8777299999999999 18.0333000000000006
  0.5209589999999999  1.8539399999999999 18.1891999999999996
  3.0910799999999998  1.7684500000000001 18.0896000000000008
  6.9336500000000001  4.0996600000000001 18.1261000000000010
  9.4539299999999997  4.0284800000000001 18.1179999999999986
  1.9223300000000001  3.9845600000000001 18.0971000000000011
  4.3553199999999999  3.9425500000000002 18.0321999999999996
  8.2097700000000007  6.3303000000000003 18.2574000000000005
  0.5486030000000000  6.2589600000000001 18.1509000000000000
  3.2056900000000002  6.2194900000000004 18.1543999999999990
  5.6299299999999999  6.2008500000000000 18.2256999999999998
  9.4578299999999995  8.5143299999999993 17.9827000000000012
  1.8414299999999999  8.4468700000000005 18.1824000000000012
  4.4329200000000002  8.3543199999999995 18.1545999999999985
  6.8866800000000001  8.4167799999999993 18.2292999999999985
  5.6514499999999996  0.3436220000000000 20.2415999999999983
  8.1997800000000005  0.2881820000000000 20.2447000000000017
  0.5420350000000000  0.3777650000000000 20.1263000000000005
  3.1584599999999998  0.5139930000000000 20.1456000000000017
  6.8659800000000004  2.4342299999999999 20.1613000000000007
  9.4026899999999998  2.4900000000000002 20.1018000000000008
  1.7924800000000001  2.5322100000000001 20.1142000000000003
  4.4192700000000000  2.6423399999999999 20.2322999999999986
  8.2260600000000004  4.7214200000000002 20.1436999999999991
  0.6468460000000000  4.7818199999999997 20.1231000000000009
  3.1304900000000000  4.7616300000000003 20.3203999999999994
  5.5957200000000000  4.7204699999999997 20.1742999999999988
  9.6411099999999994  6.9351399999999996 20.2455999999999996
  1.8291200000000001  6.9689199999999998 20.1794000000000011
  4.3071599999999997  6.9114500000000003 20.3032000000000004
  6.8856400000000004  7.0065299999999997 20.3843999999999994
  7.4063100000000004  0.3357410000000000 24.7943999999999996
  6.6854199999999997 -0.2373080000000000 24.4755000000000003
  7.4136499999999996  1.0710000000000000 24.1735000000000007
  3.3986000000000001  8.8094400000000004 26.2972999999999999
  3.6608399999999999  8.6010500000000008 25.3800999999999988
  2.8119299999999998  8.1069499999999994 26.5263999999999989
  8.1035000000000004  4.8109299999999999  4.2683099999999996
  1.2630200000000000  2.6336499999999998  4.4998199999999997
  7.8854600000000001  5.1935300000000000  5.1576899999999997
  2.7795500000000000  3.1084800000000001  0.8596950000000000
  3.3942600000000001  3.1812200000000002  1.6221200000000000
  2.0712999999999999  2.4651999999999998  1.0014900000000000
  1.3122799999999999  8.3476499999999998 23.9355000000000011
  0.6039140000000000  7.8692599999999997 23.3870000000000005
  1.9837400000000001  8.6958500000000001 23.3517000000000010
  4.8022400000000003  4.6481899999999996 29.6237999999999992
  7.8085899999999997  2.3695200000000001 29.2447000000000017
  4.2246499999999996  3.9846100000000000 29.1555000000000000
  3.2573300000000001  2.9046900000000000 27.2726000000000006
  6.6055999999999999  0.1041490000000000  4.3764500000000002
  3.3955299999999999  2.0239600000000002 26.7911999999999999
  8.3385400000000001  1.8579800000000000 28.5932999999999993
  8.6806400000000004  3.3097699999999999 27.8512999999999984
  7.5941799999999997  1.2558100000000001 28.1624000000000017
  4.8774600000000001  2.9640499999999999  2.7760699999999998
  5.3971200000000001  3.7721800000000001  2.6725599999999998
  1.8194999999999999  7.9503399999999997  3.8038500000000002
  2.6720199999999998  8.3291299999999993  4.1726599999999996
  2.3908200000000002  0.3919520000000000  4.6383599999999996
  3.0482399999999998  4.0185700000000004 26.1187000000000005
  9.1082699999999992  4.2668400000000002 27.7293999999999983
  9.2365899999999996  4.4228100000000001 26.7552999999999983
  4.2505600000000001  6.8646300000000000  3.5909700000000000
  9.4783000000000008  7.0461400000000003 22.9636999999999993
  8.7403399999999998  6.6639600000000003 23.4532999999999987
  9.8425300000000000  6.4090999999999996 22.3425000000000011
  6.4999099999999999  8.7516200000000008  5.3884299999999996
  5.2363999999999997  5.0160799999999997 28.8607000000000014
  6.3496199999999998  0.8320810000000000  5.8099999999999996
  0.0937186000000000  7.6756799999999998  3.0854800000000000
  0.1768530000000000  6.8251799999999996  2.5388000000000002
  9.6881799999999991  7.5963799999999999  3.9140600000000001
  1.8804799999999999  2.1720000000000002  5.1457499999999996
  2.5504799999999999  2.9473199999999999 27.8811999999999998
  1.3233299999999999  1.8669300000000000  5.8827199999999999
  0.5312020000000000  0.3093100000000000 28.6350000000000016
  9.9108199999999993  0.9435460000000000 28.5824999999999996
  9.9086400000000001  4.2851600000000003 25.0090000000000003
  0.0109470000000000  3.3239000000000001 24.9148999999999994
  8.9595599999999997  4.3813700000000004 24.7388000000000012
  2.4442499999999998  5.6281400000000001  6.8812899999999999
  2.6585700000000001  4.9155300000000004  7.5330899999999996
  2.9812200000000000  6.3908600000000000  7.2615299999999996
  4.9841300000000004  4.7239199999999997 23.3075000000000010
  4.7518200000000004  4.6102499999999997 22.3766999999999996
  4.1757600000000004  4.4446199999999996 23.7847000000000008
  0.0340144000000000  8.2440099999999994 28.6070999999999991
  3.3142499999999999  4.6191700000000004 25.3309999999999995
  2.5489099999999998  5.2542700000000000 25.3411000000000008
 10.0725999999999996  5.9932100000000004  0.5372550000000000
  0.5180650000000000  5.9384300000000003  1.3248300000000000
  1.4172499999999999  6.1776299999999997  0.9649690000000000
  4.3088800000000003  3.1863800000000002  3.5877500000000002
  7.1279000000000003  0.1961200000000000  2.9864000000000002
  7.2294099999999997  8.0022099999999998  2.8524200000000000
  7.9654199999999999  0.6932680000000000  2.8704800000000001
  4.3485800000000001  6.0544300000000000  3.0863900000000002
  3.9124300000000001  6.2567199999999996  2.2518199999999999
  8.6831200000000006  2.9959799999999999  7.4916200000000002
  7.7625999999999999  2.8362400000000001  7.4013299999999997
  0.5896470000000000  5.9357199999999999 25.6204999999999998
  1.3318300000000001  6.5749500000000003 25.8414999999999999
  5.9160100000000000  6.4671799999999999  7.0061999999999998
  1.3235800000000000  7.1931000000000003 25.0609999999999999
  5.9773699999999996  5.6785699999999997  6.4445899999999998
  9.1344100000000008  2.1591399999999998  7.1109000000000000
  5.8103300000000004  4.9259899999999996  7.0972600000000003
  3.2630599999999998  1.6248400000000001 23.2467000000000006
  3.0229800000000000  1.9729300000000001 22.4194999999999993
  3.0187800000000000  2.2539199999999999 23.9814000000000007
  1.1398999999999999  1.9797700000000000 25.0289000000000001
  1.2441500000000001  1.9644800000000000 25.9654999999999987
  8.9909300000000005  5.6965800000000000 28.6981999999999999
  9.1779600000000006  6.5556599999999996 29.1969999999999992
  0.5614479999999999  0.8794110000000001  7.7646400000000000
  0.1105420000000000  1.0811400000000000  6.8927199999999997
  1.3250200000000001  1.1199300000000001 24.6367000000000012
  9.8526699999999998  0.2783790000000000  6.4902100000000003
  5.0449599999999997  0.8800789999999999  0.9006880000000000
  5.7969299999999997  0.3479910000000000  1.2283700000000000
  4.8500500000000004  1.5078000000000000  1.6202700000000001
  7.0253899999999998  5.7294799999999997 25.5850000000000009
  7.4002600000000003  5.3494500000000000 24.7794999999999987
  5.0233299999999996  6.5568999999999997 23.6707000000000001
  6.6161799999999999  5.1354699999999998 24.1941999999999986
  5.0758700000000001  7.5302300000000004 23.7280000000000015
  4.6608299999999998  7.7213200000000004 22.8712000000000018
  2.5990500000000001 -0.0200342000000000 29.0371999999999986
  9.9476099999999992  5.7896799999999997  6.9800000000000004
  9.6197099999999995  4.8310800000000000  7.0781099999999997
  0.8289590000000000  5.7039999999999997  6.9336000000000002
  8.4830299999999994  2.2787799999999998 23.1881999999999984
  8.7867899999999999  3.0411000000000001 22.7271999999999998
  3.3239100000000001  7.9141700000000004  5.8463200000000004
  3.8153700000000002  8.1875099999999996  6.6999700000000004
  0.9345990000000000  4.1741900000000003  3.0760100000000001
  4.7821400000000001  8.1605399999999992  6.5350500000000000
  0.2220230000000000  3.6560700000000002  3.6004100000000001
  8.5837400000000006  1.5292100000000000 22.5289999999999999
  9.8488699999999998  3.1239400000000002  2.8581900000000000
  4.0355800000000004  3.4217900000000001  5.2321499999999999
  3.0398900000000002  3.1762999999999999  5.2733600000000003
  4.2189800000000002  4.2880399999999996  5.5665300000000002
  7.0616700000000003  6.4717500000000001  2.5484100000000001
  8.3265999999999991  6.8875599999999997 29.5762000000000000
  3.4611900000000002  5.9092599999999997  0.2713660000000000
  2.9818899999999999  6.6393500000000003  0.7311060000000000
  4.6475799999999996  5.5054699999999999 26.4715999999999987
  3.0346700000000002  7.3637400000000000  0.0195089000000000
  5.5180199999999999  5.7342399999999998 26.9509000000000007
  7.6085200000000004  5.7978500000000004  3.0454500000000002
  5.4330400000000001  6.6657099999999998 27.1142000000000003
  1.3844700000000001  3.9028000000000000 28.7936000000000014
  0.4792820000000000  4.1854399999999998 28.6489000000000011
  1.6335999999999999  3.8401900000000002 29.6996000000000002
  9.0708199999999994  4.5665199999999997  4.3232600000000003
  8.2361799999999992  2.2559999999999998  1.3985700000000001
  8.8054900000000007  2.0230500000000000  2.1294700000000000
  9.1955500000000008  7.1113700000000000  6.3319099999999997
  9.5556400000000004  1.5596500000000000  1.7686400000000000
  8.9659700000000004  7.9039900000000003  5.8315799999999998
  8.0265199999999997  8.1742200000000000  5.8846600000000002
  3.5053299999999998 -0.2285450000000000 29.1909999999999989
  3.7050299999999998  0.3792650000000000 29.9449000000000005
  6.1239200000000000  6.1790799999999999  2.7282000000000002
  6.2329100000000004  0.5764250000000000 27.3505000000000003
  6.5211600000000001  0.4722210000000000 26.4512999999999998
  5.2582199999999997  0.4311850000000000 27.5217999999999989
  5.9576799999999999  2.2922799999999999  6.6576100000000000
  5.6167899999999999  2.1623999999999999  7.5527300000000004
  5.1656899999999997  2.6462100000000000  6.0980699999999999
  1.1157200000000000  0.8287010000000000  1.1744699999999999
  0.7812550000000000  0.6143760000000000  0.3242870000000000
  0.9331350000000000 -0.0113559000000000  1.7135600000000000
  6.6779500000000001  7.4659800000000001  0.2098580000000000
  5.9038399999999998  7.4111000000000002 29.7500999999999998
  6.6517799999999996  7.0027799999999996  1.0673999999999999
  6.8072200000000000  2.9995799999999999  0.2991000000000000
  6.2625099999999998  2.1665000000000001  0.4399930000000000
  6.0590599999999997  3.6259000000000001  0.0795356000000000
