Cu O  H  O  H  O  H  O  H  O  H  O  H  O  H  O  H  O  H  O  H  O  H  O  H  O  H  O  H  O  H  O  H  O  H  O  H  O  H  O  H  O  H  O  H  O  H  O  H  O  H  O  H  O  H  O  H  O  H  O  H  O  H  O  H  O  H  O  H  O  H  O  H  O  H  O  H  O  H  O  H  O  H  O  H  O  H  O  H  O  H  O  H  O  H  O  H  O  H  O  H 
 1.0000000000000000
    10.1403771778044529    0.0000000000000000    0.0000000000000000
     0.0000000000000000    8.7818242399346058    0.0000000000000000
     0.0000000000000000    0.0000000000000000   30.1311271579000000
 Cu  O   H   O   H   O   H   O   H   O   H   O   H   O   H   O   H   O   H   O   H   O   H   O   H   O   H   O   H   O   H   O   H   O   H   O   H   O   H   O   H   O   H   O   H   O   H   O   H   O   H   O   H   O   H   O   H   O   H   O   H   O   H   O   H   O   H   O   H   O   H   O   H   O   H   O   H   O   H   O   H   O   H   O   H   O   H   O   H   O   H   O   H   O   H   O   H   O   H   O   H  
  96   1   2   1   2   1   2   1   2   1   2   1   2   1   2   1   2   1   2   1   2   1   2   1   2   1   2   1   2   1   2   1   1   1   2   1   2   1   3   1   2   1   2   1   2   1   1   1   2   1   2   1   2   1   2   1   2   1   1   1   2   1   3   1   2   1   2   1   2   1   2   1   2   1   2   1   2   1   2   1   2   1   2   1   4   1   2   1   1   1   2   1   2   1   2   1   2   1   2   1   2
Cartesian
  6.9928699999999999  1.2271300000000001  9.9190799999999992
  9.4929699999999997  1.1669600000000000  9.9497400000000003
  2.0039099999999999  1.1298600000000001 10.0777000000000001
  4.3661599999999998  1.0524199999999999  9.9742099999999994
  8.2983600000000006  3.3400599999999998  9.8883399999999995
  0.6195040000000001  3.2698000000000000  9.7908700000000000
  3.3332899999999999  3.4500299999999999  9.9708500000000004
  5.8046100000000003  3.4363600000000001  9.8916699999999995
  9.4856200000000008  5.5910000000000002  9.7874800000000004
  1.9896499999999999  5.5939100000000002  9.8794100000000000
  4.4928200000000000  5.4878200000000001  9.9434799999999992
  6.8939000000000004  5.7524300000000004  9.8184100000000001
  0.7388730000000000  7.8093500000000002  9.9093400000000003
  3.2595399999999999  7.6572699999999996  9.9841999999999995
  5.6212400000000002  7.8939000000000004  9.7396999999999991
  8.3216400000000004  7.7906399999999998  9.9009900000000002
  5.7627300000000004  1.8284899999999999 11.9291000000000000
  8.3947099999999999  1.8392700000000000 11.9446999999999992
  0.6693470000000000  1.8689300000000000 11.9362999999999992
  3.1966999999999999  1.9877700000000000 11.9777000000000005
  6.8631099999999998  4.1040099999999997 12.0886999999999993
  9.5224700000000002  4.0645300000000004 11.8214000000000006
  1.9340999999999999  4.1014499999999998 11.8163999999999998
  4.4532499999999997  4.0090700000000004 11.9841999999999995
  8.3065800000000003  6.2918200000000004 11.9285999999999994
  0.6308210000000000  6.1918800000000003 11.8163000000000000
  3.2151900000000002  6.2697000000000003 11.9227000000000007
  5.7801700000000000  6.3084600000000002 11.9115000000000002
  9.5447600000000001  8.4519300000000008 11.9373000000000005
  1.7955500000000000  8.3960299999999997 11.9747000000000003
  4.3597599999999996  8.4322199999999992 11.9847999999999999
  6.9579300000000002  8.3707499999999992 11.9144000000000005
  5.7039600000000004  0.3659090000000000 14.0305999999999997
  8.2390600000000003  0.3659090000000000 14.0305999999999997
  0.6337739999999999  0.3659090000000000 14.0305999999999997
  3.1688700000000001  0.3659090000000000 14.0305999999999997
  6.9715100000000003  2.5613700000000001 14.0305999999999997
  9.5066000000000006  2.5613700000000001 14.0305999999999997
  1.9013199999999999  2.5613700000000001 14.0305999999999997
  4.4364200000000000  2.5613700000000001 14.0305999999999997
  8.2390600000000003  4.7568200000000003 14.0305999999999997
  0.6337739999999999  4.7568200000000003 14.0305999999999997
  3.1688700000000001  4.7568200000000003 14.0305999999999997
  5.7039600000000004  4.7568200000000003 14.0305999999999997
  9.5066000000000006  6.9522800000000000 14.0305999999999997
  1.9013199999999999  6.9522800000000000 14.0305999999999997
  4.4364200000000000  6.9522800000000000 14.0305999999999997
  6.9715100000000003  6.9522800000000000 14.0305999999999997
  6.9715100000000003  1.0977300000000001 16.1005000000000003
  9.5066000000000006  1.0977300000000001 16.1005000000000003
  1.9013199999999999  1.0977300000000001 16.1005000000000003
  4.4364200000000000  1.0977300000000001 16.1005000000000003
  8.2390600000000003  3.2931800000000000 16.1005000000000003
  0.6337739999999999  3.2931800000000000 16.1005000000000003
  3.1688700000000001  3.2931800000000000 16.1005000000000003
  5.7039600000000004  3.2931800000000000 16.1005000000000003
  9.5066000000000006  5.4886400000000002 16.1005000000000003
  1.9013199999999999  5.4886400000000002 16.1005000000000003
  4.4364200000000000  5.4886400000000002 16.1005000000000003
  6.9715100000000003  5.4886400000000002 16.1005000000000003
  0.6337739999999999  7.6840999999999999 16.1005000000000003
  3.1688700000000001  7.6840999999999999 16.1005000000000003
  5.7039600000000004  7.6840999999999999 16.1005000000000003
  8.2390600000000003  7.6840999999999999 16.1005000000000003
  5.7332500000000000  1.9037700000000000 18.2285000000000004
  8.1768500000000000  1.9089700000000001 18.0195000000000007
  0.5370200000000001  1.8752700000000000 18.2998000000000012
  3.1898100000000000  1.8271900000000001 18.2198999999999991
  7.1081200000000004  4.1067000000000000 18.2664000000000009
  9.5293799999999997  4.0062600000000002 18.1067000000000000
  1.9719199999999999  4.0962300000000003 18.1832999999999991
  4.4929600000000001  4.1889700000000003 18.2828000000000017
  8.2013300000000005  6.2250300000000003 18.0869000000000000
  0.6839640000000000  6.3088499999999996 18.1677000000000000
  3.1602600000000001  6.2544199999999996 18.3396000000000008
  5.7003300000000001  6.2540399999999998 18.1423999999999985
  9.5179899999999993  8.3929600000000004 18.1615000000000002
  1.9250799999999999  8.4838100000000001 18.1875000000000000
  4.5406800000000000  8.5263200000000001 18.1396000000000015
  6.9973000000000001  8.3637300000000003 18.2386000000000017
  5.7249400000000001  0.4823140000000000 20.4621999999999993
  8.2970900000000007  0.3494170000000000 20.1611000000000011
  0.7315180000000000  0.3528480000000000 20.3084999999999987
  3.2049400000000001  0.3417720000000000 20.1458000000000013
  6.9775999999999998  2.5127000000000002 20.2787000000000006
  9.3365100000000005  2.5794800000000002 20.2646000000000015
  1.8763900000000000  2.5871900000000001 20.1414000000000009
  4.4490299999999996  2.5569500000000001 20.2256999999999998
  8.3440700000000003  4.9735100000000001 20.2941000000000003
  0.6010880000000000  4.6759300000000001 20.1017000000000010
  3.3510800000000001  4.7010399999999999 20.4488999999999983
  5.7932600000000001  4.7050200000000002 20.2920000000000016
  9.5313599999999994  6.9626500000000000 20.3022999999999989
  1.8800600000000001  6.7806400000000000 20.3582000000000001
  4.5996600000000001  7.0316799999999997 20.3548000000000009
  6.9640800000000000  7.0461000000000000 20.2981000000000016
  3.2596300000000000  1.6653899999999999 23.3160999999999987
  3.7737599999999998  2.3132400000000000 22.7488999999999990
  2.9639500000000001  2.2456999999999998 24.1383000000000010
  2.8546200000000002  1.0994500000000000 28.4923999999999999
  3.1856399999999998  2.0072600000000000 28.2473999999999990
  2.0303200000000001  1.2252300000000000 29.0546000000000006
  1.3015900000000000  6.0344100000000003 27.6176999999999992
  0.3113310000000000  4.9683599999999997  3.6448000000000000
  1.5269800000000000  5.7513500000000004 26.7347000000000001
  4.4946700000000002  8.0223700000000004 30.1595000000000013
  3.9584299999999999  8.6592400000000005 29.6803999999999988
  4.5696500000000002  8.4001500000000000  0.9530950000000000
  6.4584000000000001  6.1108700000000002 23.4836999999999989
  5.4989900000000000  6.0181699999999996 23.2844000000000015
  6.9711499999999997  6.2899099999999999 22.6739999999999995
 10.0220000000000002  3.5255500000000000 23.4013999999999989
  5.0125500000000001  0.8335550000000000 23.6104999999999983
  9.9478100000000005  4.4264099999999997 23.7824999999999989
  0.9084080000000000  4.2683999999999997 29.6777000000000015
  6.5225600000000004  3.6770399999999999  3.6618599999999999
  1.0900500000000000  4.8249300000000002  0.2840370000000000
  5.8759600000000001  0.4344700000000000 23.7032999999999987
  3.2837900000000002  1.6506300000000000  6.2471899999999998
  5.7599799999999997  8.2793799999999997 23.9029999999999987
  8.1457200000000007  6.8856200000000003  2.2231600000000000
  7.7042799999999998  7.4634099999999997  2.8645600000000000
  8.8893199999999997  1.9514100000000001 25.6531999999999982
  9.4151399999999992  2.1893500000000001 26.4622999999999990
  9.9163499999999996  1.3667400000000001 26.5934999999999988
  3.9544999999999999  4.1898999999999997 27.8302000000000014
  3.3003000000000000  1.6725600000000000  7.1725000000000003
  3.3421200000000000  0.7926029999999999  7.6184000000000003
  9.6371000000000002  1.1672199999999999  4.0115400000000001
  7.5531899999999998  3.1458200000000001  2.2935099999999999
  7.7197699999999996  4.0542400000000001  1.9030899999999999
  8.4194099999999992  2.6489199999999999  2.4750800000000002
  5.9505299999999997  3.6555900000000001  4.4536300000000004
  0.1057340000000000  3.6221199999999998 22.4758999999999993
  6.0308000000000002  4.3867399999999996  5.1346900000000000
  0.8973760000000000  1.5062800000000001  0.0992514000000000
  0.0530892000000000  1.1819299999999999 29.6511999999999993
  0.9170670000000000  2.4506600000000001  0.2374480000000000
  9.9551599999999993  5.7823900000000004  3.8340299999999998
  1.0682000000000000  4.6553800000000001 28.8479999999999990
  9.6085700000000003  6.0591299999999997  2.9923099999999998
  9.3247499999999999  5.2385500000000000  6.4947999999999997
  9.6016300000000001  4.9946500000000000  5.6456499999999998
  4.3972800000000003  0.3891920000000000  2.1467800000000001
  5.2495300000000000  0.5445010000000000  2.5125999999999999
  3.6753900000000002  0.4957230000000000  2.7990200000000001
  6.1724800000000002  2.3479700000000001 26.3491999999999997
  6.4409500000000000  1.3860600000000001 26.2224000000000004
  5.8941200000000000  2.5565300000000000 25.4196999999999989
  5.6882700000000002  6.0769299999999999 26.3159999999999989
  5.2863699999999998  6.1588799999999999 27.2106999999999992
  4.8943399999999997  5.9640199999999997 25.7361000000000004
  9.5546299999999995  4.5491700000000002  7.1477800000000000
  3.7162199999999999  3.4901000000000000 27.2300000000000004
  4.6024900000000004  3.0777199999999998 27.0189999999999984
  4.5127100000000002  3.6164499999999999  3.6478199999999998
  3.7127800000000000  3.5593599999999999  3.0321199999999999
  4.1406900000000002  3.5464899999999999  2.1895699999999998
  7.8752300000000002  7.2206700000000001  1.3693500000000001
  1.3773599999999999  3.4668600000000001  3.9780899999999999
  1.5818700000000001  3.4023099999999999  4.9179399999999998
  2.2216300000000002  3.6509100000000001  3.4703800000000000
  9.7523700000000009  1.3954899999999999  3.0843300000000000
  0.2199290000000000  2.1436299999999999  3.0764200000000002
  0.6907930000000000  7.5857700000000001  7.4393700000000003
  1.6372199999999999  7.4210599999999998  7.2990100000000000
  2.6719499999999998  3.7469899999999998 25.7002999999999986
  2.4280200000000001  3.6989200000000002 24.7674999999999983
  8.5717599999999994  0.2254310000000000 29.1281999999999996
  1.5033300000000001  3.5504699999999998 24.7508000000000017
  9.2323100000000000  0.8233770000000000 28.7618000000000009
  0.3130330000000000  6.7718699999999998  7.0379300000000002
  8.7820300000000007  1.4664100000000000 28.2154999999999987
  3.6716199999999999  5.7149799999999997 23.4526000000000003
  3.0357500000000002  6.5002399999999998 23.4643000000000015
  3.2016300000000002  4.9627600000000003 23.8201999999999998
  2.5948799999999999  4.6191800000000001  6.2322199999999999
  2.7565200000000001  5.3220099999999997  5.5987499999999999
  2.9743300000000001  6.0604800000000001 28.5335000000000001
  3.8725299999999998  5.8589300000000000 28.9146999999999998
  1.5720300000000000  8.7517700000000005 25.7259999999999991
  1.3122799999999999  8.8372899999999994 26.6382000000000012
  3.2959399999999999  4.7188400000000001  6.9518199999999997
  2.0722700000000001  0.3034250000000000 27.2127000000000017
  2.0753100000000000  0.0626919000000000  3.7181099999999998
  1.6676000000000000  0.9449280000000000  3.9390900000000002
  1.4478200000000001  8.5640999999999998  3.0474700000000001
  7.0223399999999998  0.6265410000000000  3.7628400000000002
  6.6211000000000002  8.4823599999999999  3.7574200000000002
  6.1491600000000002  0.1489370000000000  6.6889099999999999
  6.2368899999999998  8.3615999999999993  4.6953899999999997
  5.6490499999999999  8.1748399999999997  6.2974500000000004
  6.0774699999999999  7.2813699999999999  6.4205100000000002
  9.1873699999999996  5.3585599999999998 25.6231000000000009
  0.7130770000000000  2.9990500000000000  7.6699599999999997
  0.8048860000000000  2.0095600000000000  7.5373599999999996
  1.6052599999999999  3.2903899999999999  7.3370800000000003
  0.6558190000000000  7.9656599999999997  1.5274700000000001
  0.8934250000000000  0.0254704000000000  1.0336200000000000
  7.0581100000000001  5.0536599999999998 26.4269999999999996
  7.9126700000000003  4.7464599999999999 26.7315000000000005
  2.5181600000000000  8.8930600000000002 23.6045000000000016
  7.8014999999999999  3.7868900000000001 26.5896000000000008
  2.2323300000000001  8.0244300000000006 24.0163000000000011
  9.9628200000000007  8.1100700000000003  1.9683700000000000
  1.2575200000000000  7.9105299999999996 23.9127000000000010
  8.3777500000000007  1.4517300000000000 23.9518999999999984
  7.3879999999999999  1.6599900000000001 23.7744999999999997
  8.8704199999999993  2.1686399999999999 23.4871000000000016
  9.5607000000000006  0.7201280000000000  5.7389599999999996
  4.0601200000000004  6.6987199999999998 29.4329000000000001
  7.9620100000000003  4.8939500000000002 28.4249000000000009
  7.9503100000000000  5.0608300000000002 29.4341000000000008
  2.9125999999999999  5.5714499999999996  2.1164999999999998
  8.8666300000000007  5.0849000000000002 29.6331999999999987
  2.0388600000000001  5.7578100000000001  1.6794700000000000
  8.8633600000000001  0.8276010000000000  6.2855499999999997
  1.7118700000000000  6.7313700000000001  1.6943999999999999
  9.4947300000000006  7.9877599999999997 23.5962999999999994
  8.9454899999999995 -0.0086965800000000 23.5854999999999997
  9.3088499999999996  7.4727800000000002 22.7706000000000017
  1.2682599999999999  6.9857399999999998 27.4105999999999987
  6.5638199999999998  4.4048699999999998 23.8123000000000005
  6.3176699999999997  3.4146899999999998 23.7311000000000014
  7.6426299999999996  5.6387000000000000  6.5275299999999996
  6.0614499999999998  3.2006999999999999 22.8159999999999989
  6.6494299999999997  5.5392599999999996  6.6281200000000000
  6.6520799999999998  5.1644199999999998  7.5243099999999998
  9.8827800000000003  5.6052400000000002 24.9646000000000008
  9.6242099999999997  6.4383299999999997 24.5792000000000002
 10.1206999999999994  8.9579599999999999  6.2887300000000002
  7.4376100000000003  8.4329699999999992 26.2232999999999983
  7.6998499999999996  8.7416099999999997 25.3975000000000009
  6.9349900000000000  7.6105000000000000 26.0829999999999984
  5.2094100000000001  3.1135600000000001  0.7203889999999999
  5.3397699999999997  3.7162099999999998 -0.0352189000000000
  6.1589000000000000  2.9218099999999998  0.9753570000000000
  7.3156400000000001  7.7530200000000002 29.6396000000000015
  7.5519400000000001  6.7574100000000001 29.5386999999999986
  6.3567099999999996  7.6980300000000002 29.4814000000000007
  7.2605700000000004  1.8646000000000000  6.7140399999999998
  7.1486000000000001  2.1996500000000001  7.6299000000000001
  6.9128299999999996  2.5198900000000002  6.0658399999999997
  2.9878399999999998  7.4321700000000002  6.0244900000000001
  3.8584600000000000  7.7523900000000001  6.2059699999999998
  2.5761599999999998  7.7669600000000001  5.2185300000000003
