Cu  O  H  O  H  O  H  O  H  O  H  O  H  O  H  O  H  O  H  O  H  O  H  O  H  O  H  O  H  O  H  O  H  O  H  O  H  O  H  O  H  O  H  O  H  O  H  O  H  O  H  O  H  O  H  O  H  O  H  O  H  O  H  O  H  O  H  O  H  O  H  O  H  O  H  O  H  O  H  O  H  O  H  O  H  O  H  O  H  O  H  O  H  O  H  O  H  O  H  O  H 
 1.0000000000000000
    10.1403771778044529    0.0000000000000000    0.0000000000000000
     0.0000000000000000    8.7818242399346058    0.0000000000000000
     0.0000000000000000    0.0000000000000000   30.1311271579000000
 Cu  O   H   O   H   O   H   O   H   O   H   O   H   O   H   O   H   O   H   O   H   O   H   O   H   O   H   O   H   O   H   O   H   O   H   O   H   O   H   O   H   O   H   O   H   O   H   O   H   O   H   O   H   O   H   O   H   O   H   O   H   O   H   O   H   O   H   O   H   O   H   O   H   O   H   O   H   O   H   O   H   O   H   O   H   O   H   O   H   O   H   O   H   O   H   O   H   O   H   O   H  
  96   1   2   1   2   1   2   1   2   1   2   1   2   1   2   1   2   1   2   1   2   1   2   1   2   1   2   1   2   1   2   1   1   1   2   1   2   1   3   1   2   1   2   1   2   1   1   1   2   1   2   1   2   1   2   1   2   1   1   1   2   1   3   1   2   1   2   1   2   1   2   1   2   1   2   1   2   1   2   1   2   1   2   1   4   1   2   1   1   1   2   1   2   1   2   1   2   1   2   1   2
Cartesian
  7.0370900000000001  1.0857300000000001 10.0114000000000001
  9.5642899999999997  1.0830100000000000 10.0685000000000002
  1.9144399999999999  1.0034400000000001  9.9809599999999996
  4.5270099999999998  0.9793940000000000  9.8389699999999998
  8.3605199999999993  3.1075100000000000  9.9752700000000001
  0.6703360000000000  3.3241100000000001  9.9426699999999997
  3.2035000000000000  3.1629200000000002 10.0358999999999998
  5.7968599999999997  3.1926299999999999  9.9130099999999999
  9.4799900000000008  5.3113900000000003  9.9094200000000008
  1.8166300000000000  5.4217000000000004  9.9627400000000002
  4.4128200000000000  5.4504900000000003  9.8241499999999995
  7.0046499999999998  5.4813900000000002  9.7949999999999999
  0.7550940000000000  7.7096200000000001  9.9560300000000002
  3.1344699999999999  7.5744999999999996  9.8863400000000006
  5.7435799999999997  7.6643400000000002  9.9516100000000005
  8.3889099999999992  7.6838199999999999  9.9850700000000003
  5.8034200000000000  1.8563900000000000 11.9975000000000005
  8.2984799999999996  1.9075899999999999 12.0495000000000001
  0.7800319999999999  1.8154100000000000 12.0602000000000000
  3.2386400000000002  1.8662399999999999 11.9931000000000001
  7.0250000000000004  4.0792500000000000 11.9380000000000006
  9.6126199999999997  3.8784800000000001 12.0128000000000004
  1.9307700000000001  4.0728700000000000 12.0203000000000007
  4.4624300000000003  4.0562199999999997 11.8954000000000004
  8.3696999999999999  6.1745099999999997 11.8958999999999993
  0.5643690000000000  6.2090300000000003 11.9344000000000001
  3.1171000000000002  6.2157000000000000 11.9654000000000007
  5.7192800000000004  6.1156300000000003 11.8198000000000008
  9.5835500000000007  8.3554800000000000 12.0488999999999997
  1.9027600000000000  8.4442500000000003 11.9673999999999996
  4.4128699999999998  8.3454300000000003 12.0193999999999992
  6.9345600000000003  8.3450500000000005 11.9515999999999991
  5.7039600000000004  0.3659090000000000 14.0305999999999997
  8.2390600000000003  0.3659090000000000 14.0305999999999997
  0.6337739999999999  0.3659090000000000 14.0305999999999997
  3.1688700000000001  0.3659090000000000 14.0305999999999997
  6.9715100000000003  2.5613700000000001 14.0305999999999997
  9.5066000000000006  2.5613700000000001 14.0305999999999997
  1.9013199999999999  2.5613700000000001 14.0305999999999997
  4.4364200000000000  2.5613700000000001 14.0305999999999997
  8.2390600000000003  4.7568200000000003 14.0305999999999997
  0.6337739999999999  4.7568200000000003 14.0305999999999997
  3.1688700000000001  4.7568200000000003 14.0305999999999997
  5.7039600000000004  4.7568200000000003 14.0305999999999997
  9.5066000000000006  6.9522800000000000 14.0305999999999997
  1.9013199999999999  6.9522800000000000 14.0305999999999997
  4.4364200000000000  6.9522800000000000 14.0305999999999997
  6.9715100000000003  6.9522800000000000 14.0305999999999997
  6.9715100000000003  1.0977300000000001 16.1005000000000003
  9.5066000000000006  1.0977300000000001 16.1005000000000003
  1.9013199999999999  1.0977300000000001 16.1005000000000003
  4.4364200000000000  1.0977300000000001 16.1005000000000003
  8.2390600000000003  3.2931800000000000 16.1005000000000003
  0.6337739999999999  3.2931800000000000 16.1005000000000003
  3.1688700000000001  3.2931800000000000 16.1005000000000003
  5.7039600000000004  3.2931800000000000 16.1005000000000003
  9.5066000000000006  5.4886400000000002 16.1005000000000003
  1.9013199999999999  5.4886400000000002 16.1005000000000003
  4.4364200000000000  5.4886400000000002 16.1005000000000003
  6.9715100000000003  5.4886400000000002 16.1005000000000003
  0.6337739999999999  7.6840999999999999 16.1005000000000003
  3.1688700000000001  7.6840999999999999 16.1005000000000003
  5.7039600000000004  7.6840999999999999 16.1005000000000003
  8.2390600000000003  7.6840999999999999 16.1005000000000003
  5.7207299999999996  1.7910699999999999 18.0930000000000000
  8.3006300000000000  2.0587599999999999 18.3092000000000006
  0.7062100000000000  1.8686400000000001 18.1475000000000009
  3.2267999999999999  1.7736600000000000 18.3137000000000008
  7.0158199999999997  4.1327299999999996 18.1586999999999996
  9.5904799999999994  4.0681500000000002 18.2255000000000003
  1.8959100000000000  4.0765500000000001 18.3100999999999985
  4.4258100000000002  4.0135500000000004 18.2240000000000002
  8.1881500000000003  6.2017100000000003 18.2242999999999995
  0.6448750000000000  6.2952599999999999 18.1612000000000009
  3.1947000000000001  6.2753399999999999 18.2617000000000012
  5.6409599999999998  6.2398699999999998 18.0595999999999997
  9.5282999999999998  8.3347599999999993 18.0742000000000012
  2.0187800000000000  8.5103000000000009 18.0313000000000017
  4.5037900000000004  8.4468200000000007 18.2236000000000011
  7.0237999999999996  8.4590099999999993 18.2214999999999989
  5.9325500000000000  0.4305510000000000 20.3795000000000002
  8.4406300000000005  0.3297690000000000 20.2758000000000003
  0.7038770000000000  0.2184660000000000 20.0927000000000007
  3.2880400000000001  0.4295430000000000 20.2938000000000009
  6.9512499999999999  2.5674100000000002 20.3882000000000012
  9.6775599999999997  2.5773600000000001 20.2344000000000008
  1.9560299999999999  2.4142199999999998 20.2208000000000006
  4.6205900000000000  2.5350299999999999 20.0972000000000008
  8.4760500000000008  4.6557199999999996 20.2134999999999998
  0.6943120000000000  4.7136899999999997 20.4788999999999994
  3.2097199999999999  4.6518400000000000 20.4472999999999985
  5.7748999999999997  4.7393400000000003 20.0372999999999983
  9.7009899999999991  6.8692599999999997 20.1767000000000003
  2.0154100000000001  6.8991800000000003 20.3446999999999996
  4.5694499999999998  7.0590299999999999 20.3509999999999991
  7.0193099999999999  7.0251000000000001 20.2027000000000001
  4.5542499999999997  7.5565600000000002 27.6657000000000011
  4.9937899999999997  6.9229300000000000 27.0063999999999993
  3.6826099999999999  7.8221100000000003 27.2658999999999985
  7.5213599999999996  7.3528500000000001  6.9648099999999999
  8.1800800000000002  8.0379500000000004  7.0267400000000002
  7.2054999999999998  7.2439799999999996  7.8481899999999998
  1.5624400000000001  7.9674699999999996  1.2009099999999999
  8.4392600000000009  2.4902400000000000 22.6785999999999994
  1.7080700000000000  8.1514100000000003  2.1233100000000000
  6.0390699999999997  5.6613800000000003 26.3929000000000009
  6.7766900000000003  5.9268500000000000 26.9896999999999991
  6.4012900000000004  5.3970700000000003 25.4662000000000006
  7.0663299999999998  5.3580100000000002  0.9113140000000000
  7.9466099999999997  5.7077999999999998  0.9376020000000000
  7.0120699999999996  4.9504500000000000  1.8231800000000000
  5.4286399999999997  1.1921500000000000 26.8442000000000007
  6.1708900000000000  3.6318600000000001 30.1401000000000003
  5.1600299999999999  0.3577700000000000 27.2901999999999987
  0.3712160000000000  5.9724000000000004  4.1916900000000004
  0.4628030000000000  8.8456100000000006  6.6564600000000000
  1.0386299999999999  6.6814299999999998  4.0997800000000000
  6.1390399999999996  2.8003499999999999 29.6397000000000013
  7.0855399999999999  7.2910300000000001  3.9754200000000002
  5.3335900000000001  3.0080000000000000 29.0790000000000006
  6.4074700000000000  4.4453699999999996 23.8174999999999990
  7.0689500000000001  5.0404499999999999 23.4349999999999987
  8.2833900000000007  3.5863700000000001 28.8750000000000000
  9.1501900000000003  4.0639799999999999 29.1101999999999990
  9.3446400000000001  3.8695700000000000 30.0551999999999992
  8.2582599999999999  5.9375299999999998 28.7078999999999986
  7.4362700000000004  6.3784200000000002  4.2008700000000001
  7.6720400000000000  6.4749699999999999  5.1985099999999997
  3.2601000000000000  3.6029200000000001  5.9270300000000002
  6.5011099999999997  0.5556430000000000  4.1585900000000002
  6.0187999999999997  0.9133500000000000  3.3741699999999999
  5.9214500000000001  0.5603500000000000  4.8845400000000003
 -0.0205511000000000  8.1379999999999999  6.2360699999999998
  5.8249700000000004  0.8426590000000000 25.9963000000000015
  0.4471920000000000  7.3502500000000000  6.2904600000000004
  3.9900000000000002  1.8610899999999999 23.4726999999999997
  4.8184899999999997  1.4917000000000000 23.9426999999999985
  4.1006099999999996  1.6552800000000001 22.4985999999999997
  8.2366700000000002  2.3364300000000000 23.6341999999999999
  9.6063899999999993  6.3189000000000002  4.0532100000000000
  7.5185300000000002  2.9841600000000001 23.8245000000000005
  1.5678700000000001  5.8694499999999996  7.0377999999999998
  2.5399200000000000  5.9287700000000001  7.0356300000000003
  0.6899580000000000  6.4077299999999999 26.8933999999999997
  1.2141200000000001  5.5797999999999996 26.8653000000000013
 10.0150000000000006  6.2363799999999996 27.4399000000000015
  8.2066900000000000  7.1989799999999997 23.2506999999999984
  9.0928400000000007  7.2630100000000004 23.6512999999999991
  8.3648000000000007  7.0481699999999998 22.2393999999999998
  0.6794780000000000  4.6152400000000000 23.5304000000000002
  0.2298960000000000  4.2923900000000001 24.3614999999999995
  0.1023650000000000  4.1423199999999998 22.8606000000000016
  1.2829200000000001  6.0568999999999997  7.9305599999999998
  7.7565200000000001  6.6552300000000004 28.3119000000000014
  7.6802000000000001  7.3783000000000003 28.9863000000000000
  7.6992200000000004  3.3687399999999998  6.6390099999999999
  6.8319599999999996  2.9040900000000001  6.6521100000000004
  6.5114999999999998  3.1304300000000000  7.5579099999999997
  5.5606299999999997  4.6707099999999997 23.4172000000000011
  5.0667999999999997  7.2102000000000004  0.2408230000000000
  4.8165199999999997  7.3363600000000000 29.4269999999999996
  5.9135000000000000  6.6722999999999999  0.2535200000000000
  4.1718099999999998  3.2986800000000001  6.0883099999999999
  4.6145600000000000  3.5880299999999998  5.2782000000000000
  6.8880299999999997  3.3660500000000000  2.8651800000000001
  7.0249400000000000  3.4831599999999998  3.8592800000000000
  6.9641000000000002  1.9315599999999999 26.8874999999999993
  7.8544499999999999  2.4238000000000000 27.0430999999999990
 10.0010999999999992  7.1984300000000001  1.5346700000000000
  8.1100800000000000  1.7431700000000001 27.7787000000000006
  9.0095700000000001  7.1987199999999998  1.5913400000000000
  7.6476100000000002  2.8504800000000001  2.5239900000000000
  8.7679100000000005  6.9559699999999998  2.4845199999999998
  3.2649699999999999  4.5823799999999997 22.7160000000000011
  3.5535800000000002  3.6431200000000001 23.0280999999999985
  2.3193800000000002  4.6265200000000002 22.9520000000000017
  1.8883600000000000  3.5753400000000002 28.3588999999999984
  1.2099400000000000  3.4470100000000001 27.6520000000000010
  0.5878320000000000  1.8777100000000000 29.2003999999999984
  0.8825800000000000  0.9804150000000000 29.4226999999999990
  0.2275800000000000  4.7952399999999997  2.8275299999999999
  0.2449010000000000  4.2481099999999996  1.9725299999999999
  2.8015400000000001  3.4759699999999998 27.9344999999999999
  0.7056930000000000  4.8024600000000000  1.3361900000000000
  2.0558800000000002  8.5625099999999996 27.4889000000000010
  1.9037900000000001  0.3440010000000000 26.7384999999999984
  1.5367100000000000  7.7728000000000002 27.2987000000000002
  4.8806200000000004  2.7628499999999998 27.1042999999999985
  4.5461900000000002  3.5823200000000002 27.5852000000000004
  2.8096500000000000  8.5596499999999995  4.9284499999999998
  4.9484199999999996  4.4165799999999997 27.2257999999999996
  2.7737400000000001  8.4274299999999993  3.9387599999999998
  2.5049700000000001  0.5254490000000001  3.6323900000000000
  6.9892000000000003  8.3273499999999991 24.3252999999999986
  1.7934399999999999  2.4420099999999998  3.2291400000000001
  1.2945300000000000  3.1319800000000000  2.6800199999999998
  2.6537799999999998  2.9152800000000001  3.4374300000000000
  8.2464399999999998  0.5353260000000000 29.1438999999999986
  8.1748999999999992  1.2237899999999999 29.8121000000000009
  2.6204999999999998  1.9712200000000000 24.8708999999999989
  1.7489399999999999  1.6710900000000000 25.1793000000000013
  1.0234700000000001  4.5025100000000000  5.5487700000000002
  1.4173199999999999  1.1218900000000001 24.4567000000000014
  1.4011300000000000  3.5982699999999999  5.6342900000000000
  9.2484000000000002  0.3708070000000000 29.2403000000000013
  1.1750200000000000  3.1240299999999999  4.8130499999999996
  4.3077699999999997  3.7770299999999999  3.4131900000000002
  5.0613900000000003  3.5207799999999998  2.8996000000000000
  4.1353700000000000  4.7188600000000003  3.1659999999999999
  8.8003300000000007  1.8245499999999999  1.5810100000000000
  1.4543500000000000  0.6003250000000000 28.6657000000000011
  3.0910299999999999  0.3185170000000000  7.4675300000000000
  3.5684900000000002  0.4840490000000000  6.6405500000000002
  0.4280660000000000  2.7876300000000001 25.4896999999999991
  3.7797499999999999  1.4300100000000000  6.5660400000000001
 -0.0960168000000000  3.4085800000000002 25.9673000000000016
  8.9709299999999992  0.9231460000000000  2.0299800000000001
  9.2563800000000001  2.8546900000000002 26.2199999999999989
  3.7030599999999998  7.5901100000000001 23.8460000000000001
  3.6539899999999998  8.3227100000000007 23.1997000000000000
  3.9642200000000001  6.8944500000000000 23.1818999999999988
  1.2343700000000000 -0.0518494000000000  0.7482860000000000
  5.4633300000000000 -0.0707773000000000  1.3025700000000000
  5.6600400000000004  0.8199570000000000  1.6654700000000000
  5.2515999999999998  6.1532900000000001  7.1841900000000001
  5.6282600000000000  1.4984000000000000  0.9798710000000000
  4.5044199999999996  5.5395099999999999  7.4219200000000001
  4.6195599999999999  4.7995700000000001  6.8042100000000003
  6.6942899999999996  0.4162270000000000 24.6997000000000000
  7.4328200000000004  1.0567599999999999 24.4498999999999995
  9.5549599999999995  2.3792900000000001  1.8421500000000000
  9.2658799999999992  0.2478850000000000  3.9144399999999999
  8.3477200000000007  0.3839560000000000  4.2412299999999998
  9.7133599999999998 -0.1896600000000000  4.6387400000000003
  0.9661900000000000  8.3708600000000004 23.3998999999999988
  0.9801440000000000  8.5367599999999992 22.4365999999999985
  1.7615099999999999  7.9340900000000003 23.7195000000000000
  1.6028100000000001  5.4873200000000004 -0.0424493000000000
  1.7412399999999999  4.9527599999999996 29.2378999999999998
  2.1942800000000000  6.2864300000000002 -0.0132184000000000
  3.7109100000000002  6.1536700000000000  2.6290100000000001
  4.0318800000000001  6.2631699999999997  1.7296700000000000
  3.5564300000000002  7.1450699999999996  2.8603999999999998
  0.8018980000000000  1.6612400000000000  7.3387300000000000
  0.8554240000000000  2.5544899999999999  6.9294000000000002
 10.1333000000000002  1.6735899999999999  7.8833000000000002
