Cu O  H  O  H  O  H  O  H  O  H  O  H  O  H  O  H  O  H  O  H  O  H  O  H  O  H  O  H  O  H  O  H  O  H  O  H  O  H  O  H  O  H  O  H  O  H  O  H  O  H  O  H  O  H  O  H  O  H  O  H  O  H  O  H  O  H  O  H  O  H  O  H  O  H  O  H  O  H  O  H  O  H  O  H  O  H  O  H  O  H  O  H  O  H  O  H  O  H  O  H 
 1.0000000000000000
    10.1403771778044529    0.0000000000000000    0.0000000000000000
     0.0000000000000000    8.7818242399346058    0.0000000000000000
     0.0000000000000000    0.0000000000000000   30.1311271579000000
 Cu  O   H   O   H   O   H   O   H   O   H   O   H   O   H   O   H   O   H   O   H   O   H   O   H   O   H   O   H   O   H   O   H   O   H   O   H   O   H   O   H   O   H   O   H   O   H   O   H   O   H   O   H   O   H   O   H   O   H   O   H   O   H   O   H   O   H   O   H   O   H   O   H   O   H   O   H   O   H   O   H   O   H   O   H   O   H   O   H   O   H   O   H   O   H   O   H   O   H   O   H  
  96   1   2   1   2   1   2   1   2   1   2   1   2   1   2   1   2   1   2   1   2   1   2   1   2   1   2   1   2   1   2   1   1   1   2   1   2   1   3   1   2   1   2   1   2   1   1   1   2   1   2   1   2   1   2   1   2   1   1   1   2   1   3   1   2   1   2   1   2   1   2   1   2   1   2   1   2   1   2   1   2   1   2   1   4   1   2   1   1   1   2   1   2   1   2   1   2   1   2   1   2
Cartesian
  7.0128100000000000  1.1042600000000000  9.7928700000000006
  9.6066199999999995  1.0704100000000001  9.8098100000000006
  1.9261600000000001  1.0150699999999999  9.7668099999999995
  4.4228699999999996  1.0191800000000000  9.8492700000000006
  8.3827200000000008  3.3552100000000000  9.8944899999999993
  0.7899620000000001  3.2814600000000000  9.9701599999999999
  3.2140700000000000  3.2359000000000000  9.9422599999999992
  5.7041100000000000  3.4169800000000001  9.8869299999999996
  9.7408000000000001  5.6225399999999999  9.9051700000000000
  2.0363000000000002  5.4677199999999999  9.9235799999999994
  4.4150799999999997  5.3596000000000004 10.0100999999999996
  7.1380800000000004  5.4393399999999996  9.6967800000000004
  0.7919820000000000  7.7289099999999999  9.8980399999999999
  3.3047800000000001  7.5990599999999997  9.8225999999999996
  5.7907900000000003  7.6071200000000001  9.9336500000000001
  8.2876600000000007  7.7714800000000004  9.8788599999999995
  5.7377599999999997  1.7793500000000000 11.8907000000000007
  8.2406400000000009  1.8621500000000000 11.8556000000000008
  0.6461130000000000  1.8298500000000000 11.9513999999999996
  3.2357600000000000  1.7305200000000001 11.9070999999999998
  7.0085300000000004  4.0780799999999999 11.8109000000000002
  9.5602499999999999  4.0437700000000003 11.9748000000000001
  1.9920800000000001  3.8993799999999998 12.0006000000000004
  4.5345500000000003  3.9324900000000000 12.0462000000000007
  8.2304099999999991  6.2758300000000000 11.7734000000000005
  0.6748180000000000  6.2295900000000000 12.0289999999999999
  3.1206299999999998  6.2445300000000001 11.9313000000000002
  5.6905500000000000  6.1963200000000001 11.9286999999999992
  9.4338700000000006  8.4284800000000004 11.9313000000000002
  1.9037900000000001  8.5033300000000001 11.9826999999999995
  4.4234000000000000  8.4174399999999991 11.9208999999999996
  6.9346699999999997  8.5291300000000003 11.8437999999999999
  5.7039600000000004  0.3659090000000000 14.0305999999999997
  8.2390600000000003  0.3659090000000000 14.0305999999999997
  0.6337739999999999  0.3659090000000000 14.0305999999999997
  3.1688700000000001  0.3659090000000000 14.0305999999999997
  6.9715100000000003  2.5613700000000001 14.0305999999999997
  9.5066000000000006  2.5613700000000001 14.0305999999999997
  1.9013199999999999  2.5613700000000001 14.0305999999999997
  4.4364200000000000  2.5613700000000001 14.0305999999999997
  8.2390600000000003  4.7568200000000003 14.0305999999999997
  0.6337739999999999  4.7568200000000003 14.0305999999999997
  3.1688700000000001  4.7568200000000003 14.0305999999999997
  5.7039600000000004  4.7568200000000003 14.0305999999999997
  9.5066000000000006  6.9522800000000000 14.0305999999999997
  1.9013199999999999  6.9522800000000000 14.0305999999999997
  4.4364200000000000  6.9522800000000000 14.0305999999999997
  6.9715100000000003  6.9522800000000000 14.0305999999999997
  6.9715100000000003  1.0977300000000001 16.1005000000000003
  9.5066000000000006  1.0977300000000001 16.1005000000000003
  1.9013199999999999  1.0977300000000001 16.1005000000000003
  4.4364200000000000  1.0977300000000001 16.1005000000000003
  8.2390600000000003  3.2931800000000000 16.1005000000000003
  0.6337739999999999  3.2931800000000000 16.1005000000000003
  3.1688700000000001  3.2931800000000000 16.1005000000000003
  5.7039600000000004  3.2931800000000000 16.1005000000000003
  9.5066000000000006  5.4886400000000002 16.1005000000000003
  1.9013199999999999  5.4886400000000002 16.1005000000000003
  4.4364200000000000  5.4886400000000002 16.1005000000000003
  6.9715100000000003  5.4886400000000002 16.1005000000000003
  0.6337739999999999  7.6840999999999999 16.1005000000000003
  3.1688700000000001  7.6840999999999999 16.1005000000000003
  5.7039600000000004  7.6840999999999999 16.1005000000000003
  8.2390600000000003  7.6840999999999999 16.1005000000000003
  5.7731599999999998  1.7087399999999999 18.0884000000000000
  8.2453299999999992  1.8383799999999999 18.1679999999999993
  0.7139120000000000  1.8088599999999999 18.1569000000000003
  3.1824200000000000  1.8392100000000000 18.4343000000000004
  6.9380300000000004  4.0270999999999999 18.1824000000000012
  9.5332200000000000  4.0181399999999998 18.1513999999999989
  1.8923300000000001  3.9782000000000002 18.0661999999999985
  4.5080400000000003  3.9743100000000000 18.1316999999999986
  8.2054399999999994  6.2129500000000002 18.1409999999999982
  0.6665140000000001  6.2686599999999997 18.1241999999999983
  3.2217600000000002  6.1686899999999998 18.2379999999999995
  5.6631900000000002  6.2529399999999997 18.2333999999999996
  9.4511699999999994  8.4051600000000004 18.2230999999999987
  1.9511900000000000  8.4170599999999993 18.2088999999999999
  4.4662699999999997  8.4163700000000006 18.1837000000000018
  6.9107599999999998  8.3644599999999993 18.1475000000000009
  5.7543600000000001  0.3939670000000000 20.2633000000000010
  8.1885899999999996  0.3524410000000000 20.2332000000000001
  0.8187920000000000  0.3623580000000000 20.2641999999999989
  3.2755600000000000  0.4518570000000000 20.3570999999999991
  7.0942100000000003  2.5802700000000001 20.1619999999999990
  9.6759500000000003  2.5750799999999998 20.1673000000000009
  1.9908200000000000  2.7415300000000000 20.4278000000000013
  4.6051399999999996  2.5647799999999998 20.1700000000000017
  8.3760999999999992  4.8186999999999998 20.1538000000000004
  0.6801610000000000  4.8984500000000004 20.1006999999999998
  3.3105600000000002  4.9598899999999997 20.2044999999999995
  5.9879499999999997  4.8957899999999999 20.3460999999999999
  9.5939700000000006  7.0057400000000003 20.1830999999999996
  2.0033699999999999  6.8919499999999996 20.1236999999999995
  4.5171200000000002  7.0819799999999997 20.3136000000000010
  7.0488200000000001  7.1020799999999999 20.1970999999999989
  1.6140900000000000  7.7655799999999999 23.8873999999999995
  2.4516499999999999  7.3095999999999997 23.9660000000000011
  1.4905999999999999  7.9785500000000003 22.9044999999999987
  4.2142200000000001  3.4929100000000002  4.8990499999999999
  3.2961100000000001  3.3321399999999999  4.6590100000000003
  4.6470700000000003  2.6250700000000000  5.1350699999999998
  7.8824800000000002  8.0684100000000001  1.2837000000000001
  7.6885899999999996  3.7684899999999999 23.6680999999999990
  8.8214199999999998  7.8449600000000004  1.1554800000000001
  1.0371699999999999  0.9135340000000000 28.7870999999999988
  0.9134590000000000  8.6844500000000000 28.7228999999999992
  0.3372310000000000  1.3399099999999999 29.3395000000000010
  3.9520000000000000  6.3673900000000003 27.3855000000000004
  4.5588400000000000  7.0441799999999999 26.9969000000000001
  4.1657099999999998  6.1531500000000001 28.3039999999999985
  4.1676299999999999  6.5930600000000004 23.3064000000000000
  9.8839900000000007  5.2535800000000004 27.5651000000000010
  4.2910300000000001  6.3192899999999996 22.3963999999999999
  8.1262200000000000  7.6272500000000001  6.2020200000000001
  1.5921000000000001  1.5731400000000000  6.7934599999999996
  8.8542600000000000  8.2083399999999997  6.2326699999999997
  9.4303000000000008  4.4103500000000002 27.5164000000000009
  6.3117900000000002  5.3814799999999998  7.3715400000000004
 10.0167999999999999  3.9856799999999999 26.8377000000000017
  0.6725330000000000  3.6601499999999998 25.3471000000000011
  0.9795779999999999  2.8340800000000002 24.9480000000000004
  9.4206500000000002  8.7067599999999992 24.0287000000000006
  9.2619000000000007  0.8865060000000000 23.9770000000000003
  8.3581400000000006  0.8528050000000000 23.6108000000000011
  7.5781000000000001  7.1670199999999999 27.5168999999999997
  7.2563800000000001  5.2893999999999997  7.5579099999999997
  7.7158199999999999  6.0524100000000001  7.1096000000000004
  7.2883599999999999  2.2416000000000000  2.3094100000000002
  6.1098999999999997  1.3888000000000000  5.5460300000000000
  6.4275799999999998  1.2787299999999999  4.6211799999999998
  6.7530200000000002  1.9211499999999999  6.0174500000000002
  2.2448800000000002  2.2883300000000002  6.6959900000000001
  4.0608599999999999  5.7582100000000001 23.8094999999999999
  2.6962100000000002  2.2901699999999998  7.5458100000000004
  7.0166199999999996  5.1840299999999999 26.7411999999999992
  7.0840600000000000  5.0217099999999997 25.8006999999999991
  7.9136899999999999  4.9406699999999999 27.0764999999999993
  8.0816700000000008  4.3670200000000001 24.3074000000000012
  7.3936599999999997  8.1347699999999996  5.8095499999999998
  9.0159800000000008  4.1318000000000001 24.3829999999999991
  0.2812560000000000  0.0843712000000000  6.9675000000000002
  1.0424599999999999  8.2585200000000007  6.8971099999999996
  6.5950699999999998  2.5077099999999999 23.2189000000000014
  5.7572599999999996  2.1387800000000001 23.5350000000000001
  6.6110800000000003  2.0718000000000001 22.3585999999999991
  1.8618399999999999  0.9679870000000000 25.7378999999999998
  1.5592100000000000  0.7988380000000000 26.6506000000000007
  1.6072299999999999  0.1221580000000000 25.3082999999999991
  6.1630599999999998  8.4012100000000007 23.8529000000000018
  5.4471200000000000  7.7460000000000004 23.5695000000000014
  6.9638400000000003  7.7847900000000001 23.8611000000000004
 -0.0295894000000000  0.1320900000000000  7.8789100000000003
  8.1041100000000004  7.6589700000000001 28.1483999999999988
  8.3553899999999999  8.5193399999999997 27.8186999999999998
  2.9855000000000000  2.4452199999999999  1.9738899999999999
  3.7570800000000002  2.0331800000000002  1.5547100000000000
  3.8076800000000000  1.0523700000000000  1.7282999999999999
  1.4628200000000000  4.2586599999999999 25.1965000000000003
  5.8350499999999998  3.8856600000000001  1.3994300000000000
  6.2346599999999999  3.2380100000000001  0.7678680000000000
  5.1001399999999997  3.4005600000000000  1.7661899999999999
  7.6273600000000004  1.5770999999999999  2.9165100000000002
  7.7148099999999999  0.8506590000000001  2.2754300000000001
  4.8064099999999996  8.0397999999999996  6.7899700000000003
  5.4340400000000004  8.7546099999999996  6.4038399999999998
  9.8254900000000003  3.5449500000000000  0.5574550000000000
  9.5671999999999997  2.9953500000000002 29.9332999999999991
  1.1539100000000000  8.0859699999999997  1.0358900000000000
  9.6283700000000003  3.5542500000000001 29.1555999999999997
  0.4855420000000000  7.5396500000000000  1.4115400000000000
  4.7853000000000003  8.3056199999999993  7.7263599999999997
  0.4059050000000000  7.8026099999999996  2.3628900000000002
  4.1621800000000002  2.1437599999999999 25.1478000000000002
  4.6662699999999999  1.8612599999999999 25.9816000000000003
  3.3643500000000000  1.5748599999999999 25.2332999999999998
  2.2868200000000001  5.0698499999999997  0.4260390000000000
  3.1000100000000002  5.5490500000000003  0.2512360000000000
  3.6730200000000002  3.8300000000000001 25.2574000000000005
  3.4763299999999999  4.7755799999999997 25.3241000000000014
  0.4181500000000000  5.4048100000000003  1.4250400000000001
 10.0023000000000000  4.6435100000000000  1.7027800000000000
  2.2611800000000000  4.2092000000000001 30.1883000000000017
  9.1842699999999997  5.0727900000000004  2.0565899999999999
  6.9401400000000004  1.9310200000000000 29.8638000000000012
  6.4176299999999999  2.4664000000000001 29.3180000000000014
  7.7781700000000003  2.2584399999999998 29.6543999999999990
  7.3420500000000004  6.4988799999999998  2.0574599999999998
  7.4220499999999996  5.7334300000000002  2.6262799999999999
  8.6871899999999993  2.6999599999999999  7.2029300000000003
  6.7842500000000001  5.0382600000000002  2.3550399999999998
  8.0807300000000009  3.0098699999999998  6.4815300000000002
  7.6190600000000002  3.8010600000000001  6.8527800000000001
  5.6590699999999998  4.2537900000000004 27.4287999999999990
  4.7224800000000000  5.0740200000000000  6.9621800000000000
  4.5118200000000002  6.0517200000000004  6.9100599999999996
  4.2975399999999997  4.5737399999999999  6.2273600000000000
  9.7094400000000007  2.2469700000000001  4.4609500000000004
  9.0008099999999995  2.0419399999999999  3.8009599999999999
  0.4997540000000000  2.9256899999999999 22.6646000000000001
  1.4251499999999999  2.6314000000000002 22.7746999999999993
  2.6404600000000000  6.7926299999999999  4.6842800000000002
  1.2446400000000000  1.6826500000000000 22.7667999999999999
  2.9312999999999998  6.7169699999999999  3.7642699999999998
  9.2999799999999997  2.6631600000000000  5.2278300000000000
  2.5628700000000002  5.8221100000000003  3.5253800000000002
  1.4276300000000000  6.9596000000000000 28.6326000000000001
  1.5238100000000001  6.1770899999999997 29.2313000000000009
  2.1851500000000001  6.9009999999999998 28.0147000000000013
  1.8151800000000000  3.1310199999999999  3.1487799999999999
  3.8645399999999999  5.1924200000000003 26.1544999999999987
 -0.2165450000000000  0.3808880000000000  4.3911899999999999
  9.9073499999999992  8.3408800000000003  3.8263400000000001
  3.9211100000000001  7.6367399999999996  2.5733700000000002
  9.3123400000000007  7.7600499999999997  4.2922099999999999
  4.5241100000000003  8.1553299999999993  2.0094400000000001
  1.2081100000000000  3.6672899999999999  2.5647000000000002
  5.1540400000000002  8.3170000000000002  2.7381400000000000
  8.4253000000000000  6.8373299999999997 23.3691999999999993
  8.5480099999999997  6.8305300000000004 22.3835000000000015
  8.2817100000000003  5.9182899999999998 23.5790000000000006
  7.5446099999999996  7.8194999999999997  0.4521520000000000
  6.3746299999999998  0.4473390000000000 26.6748000000000012
  5.6025200000000002  8.7524700000000006 26.4037000000000006
  5.4819100000000001  7.2978500000000004  4.8753900000000003
  5.8383200000000004  8.5537899999999993 25.4174000000000007
  6.0325699999999998  7.7047400000000001  4.2080000000000002
  6.4623600000000003  7.0349199999999996  3.7378300000000002
  5.3098099999999997  3.4174000000000002 27.8382000000000005
  4.4094100000000003  3.4824899999999999 28.1035000000000004
  1.1148800000000001  2.7075000000000000  3.6663399999999999
  2.9887999999999999  2.8434800000000000 29.2654999999999994
  3.3378899999999998  2.4747300000000001 30.1393999999999984
  2.4231099999999999  2.1338699999999999 28.9509000000000007
  8.7371400000000001  1.4708399999999999 26.9042999999999992
  8.8908100000000001  1.3291599999999999 25.9555000000000007
  8.0149600000000003  2.0399400000000001 26.9875000000000007
  4.7623600000000001  6.2159500000000003 -0.0220485000000000
  5.1271800000000001  5.3827800000000003  0.3118890000000000
  4.9131299999999998  6.9142500000000000  0.6070830000000000
  0.6945840000000000  4.5124500000000003  6.4252700000000003
  1.2892900000000000  3.7693699999999999  6.6792100000000003
 10.1064000000000007  4.6075100000000004  7.0976400000000002
  1.8797500000000000  6.8906200000000002  6.3893500000000003
  1.2904500000000001  6.1408699999999996  6.2550600000000003
  2.2889800000000000  6.6309699999999996  7.1899899999999999
