Cu O  H  O  H  O  H  O  H  O  H  O  H  O  H  O  H  O  H  O  H  O  H  O  H  O  H  O  H  O  H  O  H  O  H  O  H  O  H  O  H  O  H  O  H  O  H  O  H  O  H  O  H  O  H  O  H  O  H  O  H  O  H  O  H  O  H  O  H  O  H  O  H  O  H  O  H  O  H  O  H  O  H  O  H  O  H  O  H  O  H  O  H  O  H  O  H  O  H  O  H 
 1.0000000000000000
    10.1403771778044529    0.0000000000000000    0.0000000000000000
     0.0000000000000000    8.7818242399346058    0.0000000000000000
     0.0000000000000000    0.0000000000000000   30.1311271579000000
 Cu  O   H   O   H   O   H   O   H   O   H   O   H   O   H   O   H   O   H   O   H   O   H   O   H   O   H   O   H   O   H   O   H   O   H   O   H   O   H   O   H   O   H   O   H   O   H   O   H   O   H   O   H   O   H   O   H   O   H   O   H   O   H   O   H   O   H   O   H   O   H   O   H   O   H   O   H   O   H   O   H   O   H   O   H   O   H   O   H   O   H   O   H   O   H   O   H   O   H   O   H  
  96   1   2   1   2   1   2   1   2   1   2   1   2   1   2   1   2   1   2   1   2   1   2   1   2   1   2   1   2   1   2   1   1   1   2   1   2   1   3   1   2   1   2   1   2   1   1   1   2   1   2   1   2   1   2   1   2   1   1   1   2   1   3   1   2   1   2   1   2   1   2   1   2   1   2   1   2   1   2   1   2   1   2   1   4   1   2   1   1   1   2   1   2   1   2   1   2   1   2   1   2
Cartesian
  6.9963699999999998  1.1355299999999999  9.9006200000000000
  9.7112800000000004  1.1379200000000000  9.7385800000000007
  2.0632899999999998  1.1485700000000001  9.8932900000000004
  4.6007800000000003  1.1133000000000000  9.9639399999999991
  8.3257600000000007  3.2024100000000000  9.8638600000000007
  0.6746690000000000  3.3176399999999999  9.9100000000000001
  3.2731499999999998  3.3363200000000002  9.9357299999999995
  5.7350700000000003  3.4655100000000001 10.0405999999999995
  9.5322300000000002  5.5060399999999996  9.9378799999999998
  1.9197700000000000  5.4500500000000001  9.5693800000000007
  4.5877200000000000  5.5660699999999999 10.0414999999999992
  7.1069899999999997  5.5572200000000000  9.9141300000000001
  0.8069700000000000  7.7626700000000000  9.8375400000000006
  3.2676400000000001  7.8201400000000003 10.0226000000000006
  5.8775399999999998  7.7634400000000001  9.8538200000000007
  8.4026399999999999  7.6483100000000004  9.7848400000000009
  5.7472599999999998  1.8624099999999999 12.0182000000000002
  8.2968100000000007  1.8727300000000000 11.8636999999999997
  0.7203310000000001  1.8397900000000000 11.9951000000000008
  3.1648499999999999  1.8338600000000000 12.0646000000000004
  7.0271999999999997  4.1038800000000002 11.9109999999999996
  9.5063800000000001  3.9375300000000002 11.9252000000000002
  1.8705099999999999  4.0332800000000004 11.8375000000000004
  4.4600200000000001  4.0087500000000000 12.0396000000000001
  8.2782300000000006  6.2222600000000003 11.9169000000000000
  0.7222370000000000  6.0598000000000001 11.8887999999999998
  3.1476600000000001  6.1910699999999999 11.8428000000000004
  5.8051000000000004  6.1454000000000004 11.9956999999999994
  9.5123999999999995  8.4061599999999999 12.0465000000000000
  1.8921399999999999  8.3639500000000009 11.9553999999999991
  4.5785099999999996  8.3567000000000000 12.0193999999999992
  7.0568200000000001  8.4564900000000005 11.8826000000000001
  5.7039600000000004  0.3659090000000000 14.0305999999999997
  8.2390600000000003  0.3659090000000000 14.0305999999999997
  0.6337739999999999  0.3659090000000000 14.0305999999999997
  3.1688700000000001  0.3659090000000000 14.0305999999999997
  6.9715100000000003  2.5613700000000001 14.0305999999999997
  9.5066000000000006  2.5613700000000001 14.0305999999999997
  1.9013199999999999  2.5613700000000001 14.0305999999999997
  4.4364200000000000  2.5613700000000001 14.0305999999999997
  8.2390600000000003  4.7568200000000003 14.0305999999999997
  0.6337739999999999  4.7568200000000003 14.0305999999999997
  3.1688700000000001  4.7568200000000003 14.0305999999999997
  5.7039600000000004  4.7568200000000003 14.0305999999999997
  9.5066000000000006  6.9522800000000000 14.0305999999999997
  1.9013199999999999  6.9522800000000000 14.0305999999999997
  4.4364200000000000  6.9522800000000000 14.0305999999999997
  6.9715100000000003  6.9522800000000000 14.0305999999999997
  6.9715100000000003  1.0977300000000001 16.1005000000000003
  9.5066000000000006  1.0977300000000001 16.1005000000000003
  1.9013199999999999  1.0977300000000001 16.1005000000000003
  4.4364200000000000  1.0977300000000001 16.1005000000000003
  8.2390600000000003  3.2931800000000000 16.1005000000000003
  0.6337739999999999  3.2931800000000000 16.1005000000000003
  3.1688700000000001  3.2931800000000000 16.1005000000000003
  5.7039600000000004  3.2931800000000000 16.1005000000000003
  9.5066000000000006  5.4886400000000002 16.1005000000000003
  1.9013199999999999  5.4886400000000002 16.1005000000000003
  4.4364200000000000  5.4886400000000002 16.1005000000000003
  6.9715100000000003  5.4886400000000002 16.1005000000000003
  0.6337739999999999  7.6840999999999999 16.1005000000000003
  3.1688700000000001  7.6840999999999999 16.1005000000000003
  5.7039600000000004  7.6840999999999999 16.1005000000000003
  8.2390600000000003  7.6840999999999999 16.1005000000000003
  5.6098200000000000  1.7503100000000000 18.1702000000000012
  8.2516999999999996  1.9162900000000000 18.0968000000000018
  0.5673550000000001  1.8219900000000000 18.1451999999999991
  3.1942900000000001  1.7702599999999999 18.1917000000000009
  6.8117599999999996  4.0627599999999999 18.1214000000000013
  9.5420099999999994  4.0601300000000000 18.1524999999999999
  1.8693299999999999  4.0157900000000000 18.3373999999999988
  4.4014400000000000  4.0134699999999999 18.3384999999999998
  8.2271500000000000  6.3162599999999998 18.1048000000000009
  0.6368410000000000  6.1207900000000004 18.2118000000000002
  3.1192700000000002  6.1952199999999999 18.0974000000000004
  5.6232199999999999  6.2406100000000002 18.1921999999999997
  9.3842400000000001  8.4611199999999993 18.2595999999999989
  1.7722300000000000  8.3801000000000005 18.2606999999999999
  4.3441799999999997  8.3877600000000001 18.2227999999999994
  6.9936299999999996  8.4549199999999995 18.2013999999999996
  5.7419200000000004  0.3116780000000000 20.2825999999999986
  8.3541699999999999  0.5105380000000000 20.1489000000000011
  0.6197260000000000  0.3088940000000000 20.2302000000000000
  3.1797000000000000  0.3921500000000000 20.1987999999999985
  7.0166199999999996  2.6682600000000001 20.1783000000000001
  9.6005299999999991  2.6665199999999998 20.2358000000000011
  1.9871900000000000  2.6291899999999999 20.3542999999999985
  4.4642700000000000  2.6158500000000000 20.2724000000000011
  8.2480300000000000  4.7656900000000002 20.2912999999999997
  0.7476960000000000  4.7709599999999996 20.3845999999999989
  3.2011900000000000  4.8501000000000003 20.2550999999999988
  5.7736799999999997  4.7412799999999997 20.1329999999999991
  9.4382099999999998  7.0039499999999997 20.2281000000000013
  1.9989699999999999  7.0493499999999996 20.1568000000000005
  4.4998399999999998  6.9663700000000004 20.3761000000000010
  7.0381799999999997  7.0049599999999996 20.2474999999999987
  2.1010300000000002  8.5023999999999997 28.3664999999999985
  3.0731099999999998  8.1527300000000000 28.4372000000000007
  1.8101300000000000  7.7114500000000001 27.9241999999999990
  4.8440500000000002  3.2671199999999998  5.0162300000000002
  3.8474900000000001  3.3978000000000002  5.1612499999999999
  5.0691300000000004  4.1558000000000002  4.5886100000000001
  0.1657010000000000  7.6596000000000002  2.9404400000000002
  2.3885600000000000  7.5943800000000001 22.4695000000000000
  1.0104599999999999  8.1472499999999997  3.0835100000000000
  8.3454700000000006  2.0729700000000002 27.1301999999999985
  8.8434899999999992  1.8257900000000000 27.9096000000000011
  8.1378699999999995  2.9948500000000000 27.3210000000000015
  0.3541300000000000  2.3304999999999998  3.7991799999999998
  1.1102200000000000  1.7621599999999999  3.5905900000000002
  9.8252799999999993  1.8274400000000000  4.2783499999999997
  9.5222200000000008  4.4774200000000004 23.3500000000000014
  2.2487300000000001  6.4997299999999996  1.7738100000000001
 10.0723000000000003  4.6011899999999999 22.5564999999999998
  4.7467600000000001  1.1479100000000000  3.1253600000000001
  6.3121999999999998  1.8002899999999999  7.1917999999999997
  4.2988000000000000  1.3987300000000000  2.2250999999999999
  2.7849300000000001  7.0905800000000001  1.1931600000000000
  3.4414300000000000  0.7103370000000000  6.7556399999999996
  2.6984599999999999  6.6439500000000002  0.3229470000000000
  4.9507399999999997  6.8641800000000002 24.5130000000000017
  5.5403399999999996  6.1148800000000003 24.3054999999999986
  5.0646599999999999  6.8430099999999996 28.8097999999999992
  4.6477800000000000  7.7263799999999998 28.9847000000000001
  5.2992999999999997  8.3587000000000007 28.6722999999999999
  0.4948330000000000  5.1280400000000004 29.1192999999999991
  2.6763400000000002  1.2941600000000000  6.6791099999999997
  2.1035900000000001  1.1315400000000000  7.4153700000000002
  7.9854799999999999  0.2758850000000000  5.8812499999999996
  1.0925000000000000  4.8507899999999999  3.0591400000000002
  0.4005220000000000  4.2056100000000001  2.8372500000000000
  1.8743099999999999  4.6366600000000000  2.5188199999999998
  6.0916199999999998  2.7336700000000000  7.3563599999999996
  9.6154600000000006  3.5498599999999998 23.6449999999999996
  5.6128600000000004  3.1480000000000001  6.5886399999999998
  8.1935400000000005  8.7351600000000005 23.2184999999999988
  7.7884799999999998  8.2190399999999997 22.4775999999999989
  7.3996700000000004  0.5049360000000001 23.5482000000000014
  2.4293900000000002  7.8709899999999999 23.3741999999999983
  4.7919700000000001  1.9861500000000001  3.6985600000000001
  1.4901800000000001  7.7235300000000002 23.7221000000000011
  5.6085599999999998  5.9742400000000000  4.7384300000000001
  5.0621099999999997  6.5876599999999996  5.2416600000000004
  7.7900999999999998  7.1709899999999998 26.3295999999999992
  8.2816600000000005  6.9474000000000000 25.5413999999999994
  6.9169299999999998  6.9383200000000000 25.9681999999999995
 10.0326000000000004  7.1905799999999997 24.3442000000000007
  9.6818700000000000  6.3013100000000000 24.1922999999999995
  9.2420600000000004  7.7735599999999998 24.1588999999999992
  2.5609899999999999  3.9444300000000001 23.7338999999999984
  1.6500900000000001  3.8433199999999998 23.3370999999999995
  2.9000100000000000  3.0327700000000002 23.6155000000000008
  5.6209899999999999  6.5029000000000003  3.8100399999999999
  9.7154900000000008  5.0817100000000002 29.5864000000000011
  9.8956900000000001  4.4709800000000000 30.3104000000000013
  6.2782200000000001  3.9207299999999998  1.3632100000000000
  5.6944299999999997  4.2474900000000000  2.0815800000000002
  6.2999000000000001  4.1424000000000003  2.8412400000000000
  4.0691800000000002  6.7670399999999997 24.1583000000000006
 10.0472000000000001  0.8494710000000000 29.3184000000000005
  0.7743650000000000  0.5360850000000000 28.8901000000000003
  9.5730199999999996  8.8799399999999995 29.6537000000000006
  7.4568099999999999  0.2792210000000000  6.7295699999999998
  7.9140499999999996  0.0693093000000000  7.5702699999999998
  9.1687399999999997  6.2367900000000001  6.9936199999999999
  9.1553000000000004  5.2529700000000004  6.8297499999999998
  6.2476599999999998  4.9116499999999998 28.5168999999999997
  5.2783300000000004  5.1035899999999996 28.7683000000000000
  3.9434900000000002  3.9805799999999998  1.6429800000000001
  4.8601400000000003  4.1651300000000004 28.7579999999999991
  2.9833900000000000  3.8823300000000001  1.4456500000000001
  8.2280099999999994  6.5271299999999997  6.7938000000000001
  2.9085500000000000  2.8917000000000002  1.3265400000000001
  1.5121899999999999  6.4175000000000004 26.7149000000000001
  0.7938190000000001  6.5637699999999999 26.0609999999999999
  1.9435400000000000  5.5200399999999998 26.6030000000000015
  5.4652900000000004  1.1169899999999999 27.1555000000000000
  5.6723200000000000  0.7524700000000000 26.2513000000000005
  4.5124500000000003  2.0781700000000001 27.8037999999999990
  3.9468700000000001  2.6162299999999998 28.3783999999999992
  7.7230999999999996  5.7394499999999997 27.2395999999999994
  7.6482000000000001  4.9417099999999996 27.8334000000000010
  6.2945099999999998  1.4971900000000000 27.5636000000000010
  8.3389600000000002  5.0477299999999996 28.5407000000000011
  7.1326499999999999  2.8379799999999999  0.3110340000000000
  8.0884699999999992  3.0344600000000002  0.4227850000000000
  7.0885499999999997  1.9067200000000000  0.6860600000000000
  2.9542700000000002  5.4568500000000002 28.7637000000000000
  2.2929900000000001  5.2064199999999996 29.3856999999999999
  2.3921299999999999  2.7868300000000001  6.1535200000000003
  2.7654999999999998  4.6114600000000001 30.0880000000000010
  2.3503200000000000  3.7881900000000002  5.8642500000000002
  1.7634399999999999  3.8841800000000002  5.1106999999999996
  3.1461000000000001  0.4946770000000000 24.0774000000000008
  8.7368400000000008  3.3834000000000000  6.5270000000000001
  7.7726199999999999  3.2033700000000001  6.7751799999999998
  9.0846900000000002  2.4982000000000002  6.8518200000000000
  3.0809700000000002  1.1653300000000000  0.7445889999999999
  3.3481399999999999  0.2361520000000000  0.6837120000000000
  5.5972999999999997  2.5583999999999998 22.3774000000000015
  5.3989799999999999  3.1116700000000002 23.1797000000000004
  7.3532400000000004  5.1555999999999997  4.2654399999999999
  4.6427199999999997  3.6503999999999999 22.8459000000000003
  8.0086399999999998  4.5573600000000001  3.7958900000000000
  3.2999499999999999  1.5242400000000000 29.9670999999999985
  8.2242400000000000  3.9836200000000002  4.5189500000000002
  8.5777900000000002  0.6346720000000000  4.3640900000000000
  7.9346300000000003  0.5217220000000000  3.6381000000000001
  9.1384799999999995 -0.2087710000000000  4.1456900000000001
  2.2275499999999999  0.1005780000000000  3.9409999999999998
  3.0421900000000002  2.5955699999999999 28.1344999999999992
  2.4022199999999998  5.2616399999999999  7.0833899999999996
  2.0518900000000002  6.0978300000000001  7.4471100000000003
  0.4022830000000000  1.3450700000000000 23.0357999999999983
  1.1930499999999999  6.1493099999999998  7.0372100000000000
  0.1798290000000000  1.8118799999999999 23.7828000000000017
  2.2038500000000001  0.2394300000000000  4.8749099999999999
  9.5300499999999992  1.3886700000000001 24.0694000000000017
  6.0378100000000003  0.5188000000000000 24.5341999999999985
  5.6329099999999999  8.4456399999999991 24.2482000000000006
  5.3703300000000000  1.2066100000000000 24.3389999999999986
  0.3966810000000000  6.7172900000000002  3.1136499999999998
  9.9184099999999997  2.0639699999999999  0.4812450000000000
  9.9152900000000006  2.8446799999999999  1.0349100000000000
  5.5516399999999999  5.8814799999999998  2.1114000000000002
 10.0259000000000000  2.6149600000000000  1.9718599999999999
  5.4762300000000002  6.8157600000000000  2.1271800000000001
  4.6731699999999998  7.0592800000000002  1.6251800000000001
  3.2463500000000001  1.3119600000000000 24.5792000000000002
  2.9897900000000002  1.1064600000000000 25.4743999999999993
  3.1736800000000001  0.1282850000000000  3.7963800000000001
  9.0425199999999997  7.5196699999999996  0.5175140000000000
  9.2667900000000003  6.6289300000000004  0.1556020000000000
  9.5594699999999992  7.4646499999999998  1.2859100000000001
  7.0612500000000002  5.0819700000000001 24.3789000000000016
  7.6596799999999998  5.0615300000000003 23.6435999999999993
  6.6255400000000000  4.2333900000000000 24.2329000000000008
  1.5958800000000000  3.3930500000000001 26.5056000000000012
  2.0303599999999999  3.2248899999999998 25.6080000000000005
  0.6856050000000000  3.2815300000000001 26.2132000000000005
  7.1592300000000000  0.3902960000000000  1.9885900000000001
  6.2468800000000000  9.1212400000000002  2.3190800000000000
  7.3903299999999996  8.3388500000000008  1.5040899999999999
  4.6638400000000004  7.8041999999999998  6.4921600000000002
  4.4010400000000001  7.4501499999999998  7.3906799999999997
  5.6337099999999998  7.9841499999999996  6.5742099999999999
