Cu  O  H  O  H  O  H  O  H  O  H  O  H  O  H  O  H  O  H  O  H  O  H  O  H  O  H  O  H  O  H  O  H  O  H  O  H  O  H  O  H  O  H  O  H  O  H  O  H  O  H  O  H  O  H  O  H  O  H  O  H  O  H  O  H  O  H  O  H  O  H  O  H  O  H  O  H  O  H  O  H  O  H  O  H  O  H  O  H  O  H  O  H  O  H  O  H  O  H  O  H 
 1.0000000000000000
    10.1403771778044529    0.0000000000000000    0.0000000000000000
     0.0000000000000000    8.7818242399346058    0.0000000000000000
     0.0000000000000000    0.0000000000000000   30.1311271579000000
 Cu  O   H   O   H   O   H   O   H   O   H   O   H   O   H   O   H   O   H   O   H   O   H   O   H   O   H   O   H   O   H   O   H   O   H   O   H   O   H   O   H   O   H   O   H   O   H   O   H   O   H   O   H   O   H   O   H   O   H   O   H   O   H   O   H   O   H   O   H   O   H   O   H   O   H   O   H   O   H   O   H   O   H   O   H   O   H   O   H   O   H   O   H   O   H   O   H   O   H   O   H  
  96   1   2   1   2   1   2   1   2   1   2   1   2   1   2   1   2   1   2   1   2   1   2   1   2   1   2   1   2   1   2   1   1   1   2   1   2   1   3   1   2   1   2   1   2   1   1   1   2   1   2   1   2   1   2   1   2   1   1   1   2   1   3   1   2   1   2   1   2   1   2   1   2   1   2   1   2   1   2   1   2   1   2   1   4   1   2   1   1   1   2   1   2   1   2   1   2   1   2   1   2
Cartesian
  7.0202099999999996  1.1653199999999999  9.9135399999999994
  9.5344400000000000  1.2648200000000001  9.8255099999999995
  1.8720100000000000  1.0560799999999999  9.9710199999999993
  4.2504299999999997  1.0752999999999999  9.8261800000000008
  7.9909900000000000  3.3263600000000002  9.8532600000000006
  0.5913700000000000  3.4406500000000002  9.8184299999999993
  3.1100500000000002  3.3943300000000001 10.0083000000000002
  5.5110500000000000  3.3381400000000001  9.9685100000000002
  9.5019399999999994  5.6544699999999999  9.7786700000000000
  1.9077000000000000  5.5982300000000000  9.9123900000000003
  4.3524500000000002  5.4454599999999997  9.9159199999999998
  6.9036999999999997  5.5084799999999996  9.9176099999999998
  0.6687720000000000  7.8266999999999998  9.7479600000000008
  3.2170600000000000  7.7535499999999997  9.8001100000000001
  5.7119200000000001  7.8305100000000003  9.8013800000000000
  8.2103699999999993  7.7874200000000000  9.7355900000000002
  5.6233399999999998  1.8243199999999999 11.8755000000000006
  8.2017900000000008  1.8230700000000000 11.9109999999999996
  0.4729980000000000  2.0476299999999998 11.8897999999999993
  3.1273200000000001  1.8572000000000000 11.9758999999999993
  6.9066700000000001  3.9708399999999999 11.9154000000000000
  9.4228699999999996  4.2341899999999999 11.9305000000000003
  1.8858500000000000  4.2015399999999996 11.9840000000000000
  4.3891499999999999  4.2335099999999999 11.9747000000000003
  8.0219600000000000  6.2853300000000001 11.9038000000000004
  0.5959830000000000  6.3538100000000002 11.9841999999999995
  3.2145800000000002  6.3749099999999999 11.7775999999999996
  5.6713399999999998  6.3880200000000000 12.0266000000000002
  9.5800000000000001  8.5537299999999998 11.8773999999999997
  1.9630600000000000  8.4281900000000007 11.9946999999999999
  4.4147200000000000  8.5300999999999991 11.9590999999999994
  7.0874899999999998  8.4852399999999992 11.9138999999999999
  5.7039600000000004  0.3659090000000000 14.0305999999999997
  8.2390600000000003  0.3659090000000000 14.0305999999999997
  0.6337739999999999  0.3659090000000000 14.0305999999999997
  3.1688700000000001  0.3659090000000000 14.0305999999999997
  6.9715100000000003  2.5613700000000001 14.0305999999999997
  9.5066000000000006  2.5613700000000001 14.0305999999999997
  1.9013199999999999  2.5613700000000001 14.0305999999999997
  4.4364200000000000  2.5613700000000001 14.0305999999999997
  8.2390600000000003  4.7568200000000003 14.0305999999999997
  0.6337739999999999  4.7568200000000003 14.0305999999999997
  3.1688700000000001  4.7568200000000003 14.0305999999999997
  5.7039600000000004  4.7568200000000003 14.0305999999999997
  9.5066000000000006  6.9522800000000000 14.0305999999999997
  1.9013199999999999  6.9522800000000000 14.0305999999999997
  4.4364200000000000  6.9522800000000000 14.0305999999999997
  6.9715100000000003  6.9522800000000000 14.0305999999999997
  6.9715100000000003  1.0977300000000001 16.1005000000000003
  9.5066000000000006  1.0977300000000001 16.1005000000000003
  1.9013199999999999  1.0977300000000001 16.1005000000000003
  4.4364200000000000  1.0977300000000001 16.1005000000000003
  8.2390600000000003  3.2931800000000000 16.1005000000000003
  0.6337739999999999  3.2931800000000000 16.1005000000000003
  3.1688700000000001  3.2931800000000000 16.1005000000000003
  5.7039600000000004  3.2931800000000000 16.1005000000000003
  9.5066000000000006  5.4886400000000002 16.1005000000000003
  1.9013199999999999  5.4886400000000002 16.1005000000000003
  4.4364200000000000  5.4886400000000002 16.1005000000000003
  6.9715100000000003  5.4886400000000002 16.1005000000000003
  0.6337739999999999  7.6840999999999999 16.1005000000000003
  3.1688700000000001  7.6840999999999999 16.1005000000000003
  5.7039600000000004  7.6840999999999999 16.1005000000000003
  8.2390600000000003  7.6840999999999999 16.1005000000000003
  5.6165500000000002  1.7529900000000000 18.0840999999999994
  8.2201599999999999  1.7838200000000000 18.2201999999999984
  0.5452180000000000  1.8022800000000001 18.1273000000000017
  3.0758299999999998  1.8638200000000000 18.1348999999999982
  6.8675600000000001  3.9966200000000001 18.2414999999999985
  9.5015999999999998  4.0595800000000004 18.1667999999999985
  1.8133400000000000  4.0714499999999996 18.1524000000000001
  4.3733100000000000  4.0784500000000001 18.0963999999999992
  8.2006099999999993  6.2127499999999998 18.2771000000000008
  0.5916430000000000  6.1915600000000000 18.3222999999999985
  3.1148500000000001  6.2562699999999998 18.1436999999999991
  5.6601600000000003  6.1823399999999999 18.1797000000000004
  9.5896000000000008  8.3077900000000007 18.1202000000000005
  1.9173400000000000  8.3619599999999998 18.1357999999999997
  4.4270800000000001  8.4812899999999996 18.1327999999999996
  7.0305999999999997  8.3440799999999999 18.1395000000000017
  5.7159700000000004  0.4737810000000000 20.1065000000000005
  8.4055000000000000  0.3872610000000000 20.3249999999999993
  0.6773840000000000  0.4455560000000000 20.0432999999999986
  3.1875599999999999  0.2791930000000000 20.0289000000000001
  6.9881099999999998  2.3874399999999998 20.3476999999999997
  9.4960599999999999  2.6325200000000000 20.2875000000000014
  1.9101800000000000  2.5177000000000000 20.1629000000000005
  4.3442400000000001  2.4798000000000000 20.1295999999999999
  8.2098300000000002  4.7592600000000003 20.1497999999999990
  0.6189200000000000  4.7097600000000002 20.2942000000000000
  3.1554300000000000  4.8126899999999999 20.0866000000000007
  5.6323100000000004  4.6507300000000003 20.1984999999999992
  9.4672800000000006  6.9981499999999999 20.2314000000000007
  1.8341200000000000  6.9004399999999997 20.2288999999999994
  4.4402100000000004  6.8607600000000000 20.2302999999999997
  6.9632199999999997  7.0037900000000004 20.1339000000000006
  8.0808900000000001  1.0599200000000000 23.9592999999999989
  8.2057300000000009  1.3268300000000000 24.8875999999999991
  9.0088699999999999  1.0943300000000000 23.6343999999999994
  2.5256099999999999  3.8301500000000002 23.3614999999999995
  2.6708900000000000  3.3233700000000002 22.5404000000000018
  1.5814900000000001  4.2228300000000001 23.3493999999999993
  6.3478899999999996  2.3008199999999999  5.9375900000000001
  9.9501200000000001  2.8864299999999998  4.8225300000000004
  5.9198300000000001  1.5278000000000000  6.3852099999999998
  4.2551199999999998  7.5292199999999996  1.0492600000000001
  3.8643000000000001  7.0322100000000001  1.8340799999999999
  5.1784100000000004  7.6821900000000003  1.3671599999999999
  4.0375399999999999  8.5740499999999997 23.3299999999999983
  4.0855399999999999  8.4447299999999998 22.3399000000000001
  4.2559600000000000  0.8005940000000000 23.3545000000000016
  7.8146899999999997  1.5777800000000000 26.5572000000000017
  0.2890440000000000  2.9886900000000001 28.4390999999999998
  8.6552600000000002  1.9448399999999999 26.9566000000000017
  4.3419400000000001  6.1784999999999997 28.1919000000000004
  5.3037700000000001  4.8136799999999997  7.6679500000000003
  3.5328499999999998  5.7202700000000002 28.3408000000000015
  9.9690799999999999  2.8037899999999998 27.6369000000000007
  1.6384200000000000  2.4218400000000000 25.1186000000000007
  0.6874880000000000  2.6948200000000000 27.0196000000000005
  6.6199500000000002  1.2088500000000000  3.4679600000000002
  7.5381200000000002  1.1351599999999999  3.2949500000000000
  4.3786899999999997  0.0917635000000000  6.0886600000000000
  5.0419400000000003 -0.0575593000000000  6.7370799999999997
  4.5423499999999999  8.5958299999999994  7.5723000000000003
  6.2905699999999998  7.1591399999999998  3.6244700000000001
  1.8678500000000000  2.6437599999999999 26.0673999999999992
  2.9072000000000000  2.3009700000000000 26.2061999999999991
  3.7240600000000001  5.2632199999999996  3.3411800000000000
  8.0811600000000006  4.8576800000000002 28.0089000000000006
  8.8050300000000004  4.2358399999999996 27.7394999999999996
  7.3007600000000004  4.7916200000000000 27.4030999999999985
  4.9560700000000004  4.7680999999999996  6.7282000000000002
  7.7366200000000003  0.7684350000000000 27.1220999999999997
  5.2484299999999999  3.9840300000000002  6.2146999999999997
  8.3496199999999998  3.4780500000000001  7.6219700000000001
  8.9409399999999994  4.2459699999999998  7.3977700000000004
  7.6753499999999999  3.3168400000000000  6.9714900000000002
  9.9297500000000003  3.8247599999999999  4.7233700000000001
  4.7702999999999998  5.7110000000000003 27.4439999999999991
  9.0547299999999993  4.1347899999999997  4.8198200000000000
  5.9298000000000002  5.3437500000000000 26.0898000000000003
  6.2998799999999999  6.1526300000000003 25.7038000000000011
  1.9101900000000001  7.4396500000000003 24.6112000000000002
  2.5514899999999998  6.7743300000000000 25.0540999999999983
  2.4857900000000002  7.9399699999999998 24.0483000000000011
  2.3252400000000000  6.2016000000000000  6.8354799999999996
  3.0401600000000002  5.5686900000000001  6.9043400000000004
  2.4741300000000002  6.9296199999999999  7.4921899999999999
  7.6608099999999997  8.0106699999999993 27.9392999999999994
  7.8999199999999998  7.0791300000000001 27.6972999999999985
  6.6914499999999997  8.0950199999999999 28.1406999999999989
  5.0240299999999998  5.2210500000000000 25.6907999999999994
  6.4268900000000002  7.3119100000000001  2.6494300000000002
  6.3282800000000003  6.4582199999999998  2.2075700000000000
  3.4230800000000001  7.6881399999999998 28.2210999999999999
  2.9137300000000002  8.5282699999999991 28.2045999999999992
  2.6913299999999998  8.6691699999999994 27.2408000000000001
  6.1009599999999997  0.6533160000000000  2.8891200000000001
  5.9439200000000003  5.5726699999999996  0.6203149999999999
  5.4976500000000001  5.8520599999999998 -0.1781220000000000
  6.7957099999999997  5.2569900000000001  0.2967180000000000
  3.3538199999999998  6.1461300000000003  3.1478199999999998
  2.4051600000000000  5.9677699999999998  2.9000599999999999
  8.8595699999999997  7.8591499999999996  5.8395999999999999
  8.0893099999999993  7.4266699999999997  5.5995600000000003
  1.0184400000000000  5.2358200000000004 28.7864000000000004
  1.5894600000000001  5.5184499999999996 28.0933999999999990
  9.4300800000000002  0.6015580000000000  6.9164000000000003
  1.0511200000000001  6.1214300000000001 27.6395000000000017
 10.0037000000000003  1.4237400000000000  6.7869200000000003
  9.1644100000000002  8.1808899999999998  4.9741999999999997
  9.4348799999999997  2.0596399999999999  7.3173700000000004
 10.0206999999999997  5.1050700000000004 23.5366000000000000
 10.0614000000000008  6.0374499999999998 23.2585000000000015
  9.5903600000000004  4.5989100000000001 22.8409000000000013
  3.4140500000000000  5.2767600000000003 25.4025999999999996
  2.6652200000000001  4.9844099999999996 25.9320999999999984
  0.3243550000000000  0.7042690000000000  0.2379040000000000
  9.5784900000000004  0.2687100000000000  0.1842190000000000
  6.0020300000000004  6.2468199999999996  5.9501600000000003
  6.2084500000000000  6.9532600000000002  5.3243999999999998
  3.2131300000000000  4.7134900000000002 24.6024999999999991
  5.9422400000000000  7.7165800000000004  5.9401200000000003
  4.2614000000000001  2.0502600000000002 26.2108999999999988
  4.7714699999999999  1.5804400000000001 26.9113000000000007
  4.8417000000000003  2.5293600000000001 25.5996999999999986
  0.9143700000000000  1.0526700000000000 22.6658000000000008
  0.7805530000000001  1.0580700000000001 23.5889999999999986
  9.6398899999999994  8.1517300000000006 27.0108999999999995
  0.8513269999999999  0.1031360000000000 23.7694000000000010
  9.9297000000000004  7.2206999999999999 26.7530999999999999
 -0.1396060000000000  7.2019099999999998 25.7808999999999990
  1.6244900000000000  2.8439399999999999 30.1528999999999989
  2.9966300000000001  2.6000899999999998  5.9563300000000003
  3.3875899999999999  3.2027199999999998  6.5998700000000001
  2.2070900000000000  2.2592699999999999  6.4012599999999997
  6.3524900000000004  7.6613600000000002 24.2637000000000000
  7.0338200000000004  8.2586800000000000 24.0962999999999994
  4.0999100000000004  2.5807899999999999  3.2320700000000002
  3.1825399999999999  2.9337499999999999  3.2445900000000001
  2.3170299999999999  0.4131020000000000  1.0621000000000000
  2.9582299999999999  2.8602200000000000  4.1806400000000004
  2.1307499999999999  0.9690740000000000  0.3119860000000000
  5.4740099999999998  8.0557400000000001 24.0087000000000010
  2.4193500000000001  0.5470130000000000 29.6622999999999983
  3.0811000000000002  8.3125900000000001  4.8282800000000003
  2.5060600000000002  7.8738400000000004  5.4350100000000001
  3.4125000000000001  7.6763800000000000  4.2225799999999998
  1.4710700000000001  0.9632970000000000  2.9184100000000002
  9.0981299999999994  0.7125420000000000 29.5442999999999998
  6.3923899999999998  5.2635699999999996 22.2429999999999986
  7.0701999999999998  5.3074500000000002 22.9847999999999999
  8.5639400000000006  5.4474700000000000 29.4228999999999985
  6.9835000000000003  6.2244299999999999 23.2540000000000013
  9.0806299999999993  5.7394299999999996  0.0762617000000000
  2.2201000000000000  1.6255599999999999  2.7254800000000001
  8.9297500000000003  6.6731199999999999  0.2989110000000000
  5.6854899999999997  2.4705100000000000 23.4085999999999999
  6.0897500000000004  3.3955700000000002 23.4312000000000005
  6.5080099999999996  1.9002800000000000 23.4148999999999994
  6.5075700000000003  2.0159899999999999  4.9846500000000002
  6.1498200000000001  2.7155900000000002  1.4693400000000001
  5.3587600000000002  2.7973699999999999  0.8655250000000000
  9.7341099999999994  6.5912199999999999  7.0140500000000001
  5.3644299999999996  3.7775799999999999  0.6942170000000000
  9.8242899999999995  5.7961000000000000  7.5151300000000001
  0.6542249999999999  5.6459700000000002  7.4424599999999996
  1.0082800000000001  3.6148400000000001 30.0335000000000001
  1.1911000000000000  4.1267500000000004  0.6916080000000000
  1.9463200000000001  0.4022680000000000  3.5161699999999998
  7.9418600000000001  4.1481599999999998  1.7877099999999999
  8.4445999999999994  4.7601199999999997  1.1800100000000000
  8.5649999999999995  3.4130799999999999  1.7775300000000001
  1.0378700000000001  5.1599399999999997  2.3184100000000001
  0.3481900000000000  5.8531500000000003  2.4725999999999999
  0.8710990000000000  4.5519900000000000  3.0548600000000001
  9.1379400000000004  1.8013500000000000  2.6038199999999998
  9.0502500000000001  1.2590399999999999  1.7818000000000001
 10.0484000000000009  1.5674900000000000  2.8549400000000000
  5.3956000000000000  1.0431400000000000 28.5924000000000014
  4.5411200000000003  0.7375080000000001 28.9801000000000002
  5.7663500000000001  1.6174200000000001 29.2817000000000007
  9.4834899999999998  7.4283500000000000  3.0441199999999999
  9.6511099999999992  8.1092200000000005  2.3544299999999998
  8.5177999999999994  7.2554900000000000  2.9165700000000001
