Cu O  H  O  H  O  H  O  H  O  H  O  H  O  H  O  H  O  H  O  H  O  H  O  H  O  H  O  H  O  H  O  H  O  H  O  H  O  H  O  H  O  H  O  H  O  H  O  H  O  H  O  H  O  H  O  H  O  H  O  H  O  H  O  H  O  H  O  H  O  H  O  H  O  H  O  H  O  H  O  H  O  H  O  H  O  H  O  H  O  H  O  H  O  H  O  H  O  H  O  H 
 1.0000000000000000
    10.1403771778044529    0.0000000000000000    0.0000000000000000
     0.0000000000000000    8.7818242399346058    0.0000000000000000
     0.0000000000000000    0.0000000000000000   30.1311271579000000
 Cu  O   H   O   H   O   H   O   H   O   H   O   H   O   H   O   H   O   H   O   H   O   H   O   H   O   H   O   H   O   H   O   H   O   H   O   H   O   H   O   H   O   H   O   H   O   H   O   H   O   H   O   H   O   H   O   H   O   H   O   H   O   H   O   H   O   H   O   H   O   H   O   H   O   H   O   H   O   H   O   H   O   H   O   H   O   H   O   H   O   H   O   H   O   H   O   H   O   H   O   H  
  96   1   2   1   2   1   2   1   2   1   2   1   2   1   2   1   2   1   2   1   2   1   2   1   2   1   2   1   2   1   2   1   1   1   2   1   2   1   3   1   2   1   2   1   2   1   1   1   2   1   2   1   2   1   2   1   2   1   1   1   2   1   3   1   2   1   2   1   2   1   2   1   2   1   2   1   2   1   2   1   2   1   2   1   4   1   2   1   1   1   2   1   2   1   2   1   2   1   2   1   2
Cartesian
  7.1253000000000002  1.0971700000000000  9.8940900000000003
  9.6659600000000001  1.1712600000000000  9.8695000000000004
  2.0431499999999998  1.1146000000000000  9.8009299999999993
  4.7488200000000003  1.0872400000000000  9.7703900000000008
  8.4167299999999994  3.3750100000000001  9.9445899999999998
  0.7813740000000000  3.3503500000000002  9.8604500000000002
  3.2609900000000001  3.2620000000000000  9.8230699999999995
  5.7333600000000002  3.3820999999999999  9.9646799999999995
  9.5551399999999997  5.5822099999999999  9.7492199999999993
  1.9495600000000000  5.6558299999999999  9.8522200000000009
  4.5198299999999998  5.5608700000000004  9.9787499999999998
  7.1185000000000000  5.4375900000000001  9.7806200000000008
  0.7545500000000001  7.8767100000000001  9.7682099999999998
  3.4375599999999999  7.6896800000000001  9.9062699999999992
  5.9352600000000004  7.5153999999999996  9.9070099999999996
  8.2941800000000008  7.7853000000000003  9.8711500000000001
  5.8330200000000003  1.8371400000000000 11.9969999999999999
  8.2454300000000007  1.8332200000000001 11.9787999999999997
  0.6735570000000000  1.9179600000000001 12.1149000000000004
  3.2206500000000000  1.8348700000000000 11.8940999999999999
  7.0193199999999996  4.0789499999999999 11.9901999999999997
  9.6463400000000004  4.1027899999999997 11.9091000000000005
  1.9471700000000001  3.9597500000000001 12.0350000000000001
  4.4238000000000000  4.0582599999999998 11.9210999999999991
  8.2082899999999999  6.3658299999999999 11.9269999999999996
  0.7123969999999999  6.2619999999999996 11.7883999999999993
  3.1985199999999998  6.2766999999999999 11.9268000000000001
  5.7156399999999996  6.2424099999999996 11.9268000000000001
  9.5693300000000008  8.4118399999999998 11.9860000000000007
  1.9881500000000001  8.3698099999999993 12.0014000000000003
  4.6128499999999999  8.6024899999999995 11.8849999999999998
  7.0395599999999998  8.5482800000000001 12.0052000000000003
  5.7039600000000004  0.3659090000000000 14.0305999999999997
  8.2390600000000003  0.3659090000000000 14.0305999999999997
  0.6337739999999999  0.3659090000000000 14.0305999999999997
  3.1688700000000001  0.3659090000000000 14.0305999999999997
  6.9715100000000003  2.5613700000000001 14.0305999999999997
  9.5066000000000006  2.5613700000000001 14.0305999999999997
  1.9013199999999999  2.5613700000000001 14.0305999999999997
  4.4364200000000000  2.5613700000000001 14.0305999999999997
  8.2390600000000003  4.7568200000000003 14.0305999999999997
  0.6337739999999999  4.7568200000000003 14.0305999999999997
  3.1688700000000001  4.7568200000000003 14.0305999999999997
  5.7039600000000004  4.7568200000000003 14.0305999999999997
  9.5066000000000006  6.9522800000000000 14.0305999999999997
  1.9013199999999999  6.9522800000000000 14.0305999999999997
  4.4364200000000000  6.9522800000000000 14.0305999999999997
  6.9715100000000003  6.9522800000000000 14.0305999999999997
  6.9715100000000003  1.0977300000000001 16.1005000000000003
  9.5066000000000006  1.0977300000000001 16.1005000000000003
  1.9013199999999999  1.0977300000000001 16.1005000000000003
  4.4364200000000000  1.0977300000000001 16.1005000000000003
  8.2390600000000003  3.2931800000000000 16.1005000000000003
  0.6337739999999999  3.2931800000000000 16.1005000000000003
  3.1688700000000001  3.2931800000000000 16.1005000000000003
  5.7039600000000004  3.2931800000000000 16.1005000000000003
  9.5066000000000006  5.4886400000000002 16.1005000000000003
  1.9013199999999999  5.4886400000000002 16.1005000000000003
  4.4364200000000000  5.4886400000000002 16.1005000000000003
  6.9715100000000003  5.4886400000000002 16.1005000000000003
  0.6337739999999999  7.6840999999999999 16.1005000000000003
  3.1688700000000001  7.6840999999999999 16.1005000000000003
  5.7039600000000004  7.6840999999999999 16.1005000000000003
  8.2390600000000003  7.6840999999999999 16.1005000000000003
  5.7568900000000003  1.9089600000000000 18.2378000000000000
  8.2205600000000008  1.8799100000000000 18.2081000000000017
  0.6912010000000000  1.8431100000000000 18.1773999999999987
  3.0904900000000000  1.8471599999999999 18.2034999999999982
  6.9460199999999999  4.0975500000000000 18.2555000000000014
  9.5359200000000008  4.1362500000000004 18.2671999999999990
  1.9549099999999999  4.0518099999999997 18.2103999999999999
  4.4502800000000002  4.0278400000000003 18.1519000000000013
  8.1366499999999995  6.2302200000000001 18.0372999999999983
  0.6391240000000000  6.2682500000000001 18.1936000000000000
  3.1695099999999998  6.2927999999999997 18.1712999999999987
  5.6188300000000000  6.2664099999999996 18.1240999999999985
  9.4649699999999992  8.4033300000000004 18.2432000000000016
  1.8776700000000000  8.4631600000000002 18.1859000000000002
  4.2495300000000000  8.4010499999999997 18.2353999999999985
  6.9680600000000004  8.3572799999999994 18.1733000000000011
  5.6193999999999997  0.2963030000000000 20.1232000000000006
  8.2177100000000003  0.4168720000000000 20.1978000000000009
  0.5855290000000000  0.2645160000000000 20.3093000000000004
  3.1191399999999998  0.3238230000000000 20.3191999999999986
  6.8298500000000004  2.5833800000000000 20.2480000000000011
  9.4892500000000002  2.5831400000000002 20.1935000000000002
  1.9770700000000001  2.5368499999999998 20.2779999999999987
  4.4060199999999998  2.4261400000000002 20.3687000000000005
  8.1993399999999994  4.6891999999999996 20.3175999999999988
  0.6948270000000000  4.6891999999999996 20.2525000000000013
  3.2389299999999999  4.7800500000000001 20.0985000000000014
  5.6281400000000001  4.6263100000000001 20.3643000000000001
  9.4539799999999996  6.8257099999999999 20.2960999999999991
  1.9225300000000001  6.9538000000000002 20.2391000000000005
  4.2683600000000004  6.9306200000000002 20.1275000000000013
  7.0293200000000002  6.9597499999999997 20.1874000000000002
  9.5650800000000000  6.3369999999999997 26.2774000000000001
 10.1608999999999998  6.1406000000000001 25.5010000000000012
  9.5562400000000007  5.5094799999999999 26.8113999999999990
  6.5216300000000000  5.0397299999999996  5.6664899999999996
  6.6868900000000000  5.9015100000000000  5.3449099999999996
  7.4253700000000000  4.7499200000000004  5.9453699999999996
  2.1100699999999999  6.9573499999999999  3.9540999999999999
  0.0890541000000000  3.5617700000000001 22.6036000000000001
  2.2742100000000001  6.3482300000000000  4.7542000000000000
  7.3172899999999998  1.0567800000000001 27.9246000000000016
  6.7004900000000003  0.6611140000000000 27.2935000000000016
  7.2484700000000002  0.4996520000000000 28.7054000000000009
  0.4935710000000000  3.6049699999999998  3.7219300000000000
  0.3744850000000000  2.6735899999999999  3.6792899999999999
  0.5426160000000000  3.5994700000000002  4.7206799999999998
  9.8749099999999999 -0.0766572000000000 27.1738999999999997
  2.4185699999999999  7.2966100000000003  0.3041170000000000
  9.6152300000000004  7.7710299999999997 26.8401999999999994
  4.4663700000000004  2.1601499999999998  4.8597999999999999
  6.5689900000000003  2.6614900000000001  7.2711899999999998
  4.3416600000000001  3.0813000000000001  4.4992999999999999
  3.1112500000000001  6.8501200000000004  0.8448510000000000
  2.2952200000000000  0.1586280000000000  6.2657100000000003
  3.1230000000000002  5.9566999999999997  0.5419890000000001
  1.3351000000000000  5.8802199999999996 24.3989000000000011
  2.0492900000000001  5.8412800000000002 25.1387000000000000
  3.5496200000000000  5.8224499999999999 26.8654000000000011
  3.4555699999999998  6.2757600000000000 26.0578000000000003
  4.0325400000000000  7.0563099999999999 26.0565999999999995
  0.9157280000000000  4.0047499999999996  0.4957460000000000
  1.3965399999999999  0.5144850000000000  6.0334700000000003
  1.4092300000000000  1.3592500000000001  6.3404199999999999
  8.7937899999999996  1.6686700000000001  5.8608200000000004
  3.2094999999999998  4.2292300000000003  3.2444600000000001
  2.2547500000000000  4.0723900000000004  3.2761100000000001
  3.5397699999999999  4.1924900000000003  2.3651200000000001
  5.7268699999999999  3.0423200000000001  7.6207200000000004
  8.9694400000000005  0.2455370000000000 27.3496999999999986
  5.8120000000000003  3.9855499999999999  7.4654600000000002
  8.1828699999999994  4.4699999999999998 24.4726999999999997
  8.7313799999999997  3.7447100000000000 24.1841000000000008
  7.3010500000000000  4.1322700000000001 24.3204999999999991
  0.2470920000000000  3.1321900000000000 23.4851999999999990
  4.7676800000000004  2.2542300000000002  5.7906199999999997
 -0.3663910000000000  2.3966799999999999 23.5980999999999987
  6.4984000000000002  7.8932900000000004  5.9640700000000004
  7.3959299999999999  7.9990100000000002  6.4268999999999998
  6.6110699999999998  6.2324200000000003 26.6244000000000014
  7.2574300000000003  5.9428200000000002 26.0095999999999989
  7.1743800000000002  6.2364400000000000 27.4327000000000005
  9.2728199999999994  0.6603280000000000 24.1284999999999989
  0.0256893000000000  0.3379850000000000 24.0339999999999989
  8.7252299999999998 -0.0422487000000000 23.7299000000000007
  1.6825000000000001  8.3864300000000007 23.2912999999999997
  1.4205099999999999  7.4322200000000000 23.4436999999999998
  1.4846500000000000  8.5733099999999993 22.3419999999999987
  6.5548599999999997  8.4089299999999998  5.1560400000000000
 10.0183000000000000  3.9267500000000002  0.4575880000000000
  9.8873700000000007  2.9650699999999999  0.6695150000000000
  9.0293100000000006  5.1375299999999999  1.4597800000000001
  8.3791799999999999  5.7703100000000003  1.7802500000000001
  8.7527100000000004  6.1742800000000004  2.5932400000000002
  1.3731000000000000  5.0168299999999997 24.0152999999999999
  1.5118199999999999  8.7197899999999997 29.3830999999999989
  2.3295400000000002  0.2937630000000000 28.9857000000000014
  0.9274850000000000  8.4759700000000002 28.6721000000000004
  8.4909999999999997  1.8613100000000000  6.8133600000000003
  8.4557599999999997  0.9558920000000000  7.1976599999999999
  9.2793500000000009  7.7083100000000000  6.5606000000000000
  9.3664299999999994  6.9621800000000000  7.2132300000000003
  4.2834700000000003  3.6786200000000000 28.2482000000000006
  3.4675099999999999  4.0971799999999998 27.8961000000000006
  6.3253599999999999  4.4315800000000003  1.4078400000000000
  3.3230400000000002  3.6569400000000001 27.0072000000000010
  5.7781799999999999  3.7598900000000000  1.8038900000000000
 10.1623000000000001  8.2036700000000007  6.3974700000000002
  5.4681300000000004  3.3050600000000001  1.0639000000000001
  9.2095300000000009  4.1322099999999997 27.9405000000000001
  9.7972699999999993  3.4533000000000000 27.5005999999999986
  9.5346899999999994  4.1388100000000003 28.8853000000000009
  5.1165900000000004  8.4326500000000006 26.2462000000000018
  5.0640700000000001  8.6725600000000007 25.3331000000000017
  3.8972099999999998  0.7940290000000000 27.1701000000000015
  3.3996499999999998  1.2829299999999999 27.8021999999999991
  6.2104100000000004  4.7048600000000000 28.0627999999999993
  6.3745300000000000  4.0759200000000000 28.7860000000000014
  5.7655099999999999  7.6527099999999999 26.2944999999999993
  7.2641499999999999  3.6486000000000001 28.5964999999999989
  7.8098200000000002  0.4653010000000000  0.7613920000000000
  8.5574499999999993  0.9462120000000001  1.2288399999999999
  7.2258599999999999  0.1753240000000000  1.4131199999999999
  2.4848300000000001  3.8396300000000001 29.5334000000000003
  2.6624800000000000  3.9253800000000001  0.3583460000000000
  1.2556200000000000  2.8233899999999998  7.4322600000000003
  3.1972999999999998  3.1204999999999998  0.5454010000000000
  1.2480899999999999  3.5130599999999998  6.7155699999999996
  0.3539520000000000  3.9181900000000001  6.9195399999999996
  8.0600100000000001  5.9032499999999999 23.7250000000000014
  8.8295600000000007  4.5678099999999997  6.8760700000000003
  8.4189500000000006  4.9309300000000000  7.7117300000000002
  8.6796600000000002  3.5788099999999998  6.8537100000000004
  3.8185799999999999  1.5594800000000000  1.1443900000000000
  3.4849199999999998  1.2203299999999999  2.0321899999999999
  4.8233899999999998  0.5567010000000000 23.1491000000000007
  4.1891900000000000  1.0811999999999999 23.6812000000000005
  9.1961499999999994  6.8247200000000001  4.7764600000000002
  3.2754900000000000  0.7755860000000000 23.4271999999999991
  9.5024499999999996  7.0061299999999997  3.8935800000000000
  3.6985899999999998  0.8553520000000000  0.4922160000000000
  0.3325100000000000  7.0990500000000001  3.8870600000000000
  9.1894799999999996  1.2109799999999999  4.2716599999999998
  8.2562400000000000  0.9779990000000000  4.0243099999999998
  9.6188900000000004  9.1168099999999992  4.1784600000000003
  2.5474399999999999  0.9306050000000000  3.4498199999999999
  2.7111100000000001  1.8389800000000001 27.3795000000000002
  2.7224400000000002  6.4378900000000003  6.9696600000000002
  2.9485800000000002  5.6868200000000000  6.3857999999999997
  6.1880199999999999  7.1324199999999998 23.6312999999999995
  2.3474200000000001  4.9688499999999998  6.6819899999999999
  5.2467800000000002  7.2430500000000002 23.7530999999999999
  2.3390900000000001 -0.0098073800000000  3.8008199999999999
  4.7939499999999997  6.8247499999999999 22.9892000000000003
  5.9024099999999997  3.4008900000000000 23.2574000000000005
  6.1901999999999999  3.5182699999999998 22.3368000000000002
  4.9947699999999999  2.9800900000000001 23.1416000000000004
  2.3654400000000000  6.5063599999999999  3.1398999999999999
  0.6680720000000000  0.7402090000000000  0.4575200000000000
  0.2025860000000000  1.3318300000000001  1.0813999999999999
  5.9925899999999999  6.7208899999999998  1.5975400000000000
  0.5189710000000000  1.1929799999999999  1.9866500000000000
  5.5979299999999999  7.5327099999999998  1.9666500000000000
  4.7109399999999999  7.4030100000000001  1.6659299999999999
  7.9454099999999999  6.8657100000000000 23.5412999999999997
  8.3286700000000007  6.8801600000000001 22.6487000000000016
  3.0467200000000001  1.5000100000000001  4.0902599999999998
  7.8497700000000004  6.8346299999999998 29.2469999999999999
  8.0948499999999992  6.1929800000000004 29.9725999999999999
  7.4846800000000000  7.6006900000000002 29.7656999999999989
  3.8012899999999998  3.0877699999999999 25.3819000000000017
  4.3790600000000000  3.8010299999999999 25.0487000000000002
  3.9873200000000000  2.3109500000000001 24.8424000000000014
  0.6777620000000000  2.2849400000000002 26.2072000000000003
  0.2298990000000000  2.4582500000000000 25.3358999999999988
  0.3192000000000000  1.3830800000000001 26.5701999999999998
  6.5637699999999999  0.6473650000000000  3.4945200000000001
  5.9092900000000004  1.3109900000000001  3.8631099999999998
  6.0398100000000001 -0.0863910000000000  3.0826500000000001
  3.9368900000000000  8.5037599999999998  6.7766099999999998
  4.0523800000000003 -0.1566670000000000  7.7009999999999996
  4.8226500000000003  8.3170900000000003  6.4256599999999997
