Cu O  H  O  H  O  H  O  H  O  H  O  H  O  H  O  H  O  H  O  H  O  H  O  H  O  H  O  H  O  H  O  H  O  H  O  H  O  H  O  H  O  H  O  H  O  H  O  H  O  H  O  H  O  H  O  H  O  H  O  H  O  H  O  H  O  H  O  H  O  H  O  H  O  H  O  H  O  H  O  H  O  H  O  H  O  H  O  H  O  H  O  H  O  H  O  H  O  H  O  H 
 1.0000000000000000
    10.1403771778044529    0.0000000000000000    0.0000000000000000
     0.0000000000000000    8.7818242399346058    0.0000000000000000
     0.0000000000000000    0.0000000000000000   30.1311271579000000
 Cu  O   H   O   H   O   H   O   H   O   H   O   H   O   H   O   H   O   H   O   H   O   H   O   H   O   H   O   H   O   H   O   H   O   H   O   H   O   H   O   H   O   H   O   H   O   H   O   H   O   H   O   H   O   H   O   H   O   H   O   H   O   H   O   H   O   H   O   H   O   H   O   H   O   H   O   H   O   H   O   H   O   H   O   H   O   H   O   H   O   H   O   H   O   H   O   H   O   H   O   H  
  96   1   2   1   2   1   2   1   2   1   2   1   2   1   2   1   2   1   2   1   2   1   2   1   2   1   2   1   2   1   2   1   1   1   2   1   2   1   3   1   2   1   2   1   2   1   1   1   2   1   2   1   2   1   2   1   2   1   1   1   2   1   3   1   2   1   2   1   2   1   2   1   2   1   2   1   2   1   2   1   2   1   2   1   4   1   2   1   1   1   2   1   2   1   2   1   2   1   2   1   2
Cartesian
  7.0301400000000003  0.9691070000000001  9.9620700000000006
  9.5660200000000000  0.9695740000000000  9.7782400000000003
  1.8943800000000000  1.0445899999999999  9.9708199999999998
  4.4446599999999998  1.0758500000000000  9.6729400000000005
  8.2746999999999993  3.1659299999999999  9.9526699999999995
  0.7809739999999999  3.2970799999999998  9.9115599999999997
  3.1698800000000000  3.3254999999999999  9.9772900000000000
  5.6951499999999999  3.2531900000000000  9.9995499999999993
  9.6256900000000005  5.3097700000000003  9.9925400000000000
  2.0237400000000001  5.5036100000000001 10.0228999999999999
  4.5565699999999998  5.4310900000000002  9.9288500000000006
  7.0221299999999998  5.5582599999999998  9.9736999999999991
  0.6424580000000000  7.6913400000000003  9.8307300000000009
  3.1443200000000000  7.5656900000000000 10.0169999999999995
  5.5838299999999998  7.6141300000000003  9.9145099999999999
  8.2016500000000008  7.6149600000000000  9.9796800000000001
  5.6790399999999996  1.7371900000000000 11.9137000000000004
  8.1519300000000001  1.7253300000000000 11.8702000000000005
  0.5287780000000000  1.8148100000000000 11.9389000000000003
  3.1605099999999999  1.7741499999999999 11.9715000000000007
  6.9803499999999996  4.0226199999999999 11.9755000000000003
  9.4967900000000007  3.7638699999999998 11.9999000000000002
  2.0038900000000002  3.8800200000000000 12.0161999999999995
  4.4541500000000003  3.9318900000000001 11.9918999999999993
  8.3409099999999992  6.1217300000000003 11.9794999999999998
  0.7746459999999999  6.1010400000000002 11.9970999999999997
  3.2317499999999999  6.2614599999999996 12.0203000000000007
  5.7198799999999999  6.2265499999999996 11.9888999999999992
  9.5570299999999992  8.4046000000000003 12.0070999999999994
  1.7987299999999999  8.4865399999999998 11.9852000000000007
  4.3916899999999996  8.4509000000000007 11.9309999999999992
  6.8504800000000001  8.3809000000000005 11.8321000000000005
  5.7039600000000004  0.3659090000000000 14.0305999999999997
  8.2390600000000003  0.3659090000000000 14.0305999999999997
  0.6337739999999999  0.3659090000000000 14.0305999999999997
  3.1688700000000001  0.3659090000000000 14.0305999999999997
  6.9715100000000003  2.5613700000000001 14.0305999999999997
  9.5066000000000006  2.5613700000000001 14.0305999999999997
  1.9013199999999999  2.5613700000000001 14.0305999999999997
  4.4364200000000000  2.5613700000000001 14.0305999999999997
  8.2390600000000003  4.7568200000000003 14.0305999999999997
  0.6337739999999999  4.7568200000000003 14.0305999999999997
  3.1688700000000001  4.7568200000000003 14.0305999999999997
  5.7039600000000004  4.7568200000000003 14.0305999999999997
  9.5066000000000006  6.9522800000000000 14.0305999999999997
  1.9013199999999999  6.9522800000000000 14.0305999999999997
  4.4364200000000000  6.9522800000000000 14.0305999999999997
  6.9715100000000003  6.9522800000000000 14.0305999999999997
  6.9715100000000003  1.0977300000000001 16.1005000000000003
  9.5066000000000006  1.0977300000000001 16.1005000000000003
  1.9013199999999999  1.0977300000000001 16.1005000000000003
  4.4364200000000000  1.0977300000000001 16.1005000000000003
  8.2390600000000003  3.2931800000000000 16.1005000000000003
  0.6337739999999999  3.2931800000000000 16.1005000000000003
  3.1688700000000001  3.2931800000000000 16.1005000000000003
  5.7039600000000004  3.2931800000000000 16.1005000000000003
  9.5066000000000006  5.4886400000000002 16.1005000000000003
  1.9013199999999999  5.4886400000000002 16.1005000000000003
  4.4364200000000000  5.4886400000000002 16.1005000000000003
  6.9715100000000003  5.4886400000000002 16.1005000000000003
  0.6337739999999999  7.6840999999999999 16.1005000000000003
  3.1688700000000001  7.6840999999999999 16.1005000000000003
  5.7039600000000004  7.6840999999999999 16.1005000000000003
  8.2390600000000003  7.6840999999999999 16.1005000000000003
  5.6447799999999999  1.8232699999999999 18.0900999999999996
  8.2075099999999992  1.9039699999999999 18.0172999999999988
  0.6298090000000000  1.8169200000000001 18.0801000000000016
  3.1049799999999999  1.6528499999999999 18.0390000000000015
  7.0167200000000003  4.1243999999999996 18.0049999999999990
  9.5703899999999997  3.9751500000000002 18.1801999999999992
  1.9190199999999999  3.8795199999999999 18.2049999999999983
  4.4137899999999997  4.0062300000000004 18.0649000000000015
  8.2246100000000002  6.2142600000000003 18.1141000000000005
  0.5915670000000000  6.2475800000000001 18.2197999999999993
  3.0684399999999998  6.1733700000000002 18.2039000000000009
  5.7485299999999997  6.2340099999999996 18.3013000000000012
  9.5406600000000008  8.3445000000000000 18.1649999999999991
  1.9001200000000000  8.3181100000000008 18.2502999999999993
  4.3569699999999996  8.3325800000000001 18.1243000000000016
  6.9836600000000004  8.4194899999999997 18.2286000000000001
  5.7316200000000004  0.2878180000000000 20.1250999999999998
  8.2007600000000007  0.3250900000000000 20.2911999999999999
  0.6484290000000000  0.3639970000000000 20.2280000000000015
  3.2473299999999998  0.2910260000000000 20.3652000000000015
  6.9798000000000000  2.5277099999999999 20.0125999999999991
  9.4625800000000009  2.5367999999999999 20.2336999999999989
  1.9209000000000001  2.5932900000000001 20.2547999999999995
  4.3739100000000004  2.5173600000000000 20.0579000000000001
  8.1605200000000000  4.7019799999999998 20.1717000000000013
  0.5343850000000000  4.7089400000000001 20.1239999999999988
  3.0840500000000000  4.6918600000000001 20.2119999999999997
  5.6650700000000001  4.6991699999999996 20.0737999999999985
  9.4990199999999998  6.9426300000000003 20.2662000000000013
  1.8780900000000000  6.8464900000000002 20.2219000000000015
  4.3525700000000001  6.9239800000000002 20.1544999999999987
  6.8410200000000003  6.8964999999999996 20.3898000000000010
  3.4925299999999999  3.5197900000000000 25.0823999999999998
  3.0781800000000001  2.7261199999999999 24.6890000000000001
  3.6982200000000001  4.1355500000000003 24.3225000000000016
  7.7596900000000000  5.8473300000000004  6.7947100000000002
  7.5060300000000000  5.5684300000000002  7.7305500000000000
  8.1661900000000003  5.0549400000000002  6.3838100000000004
  1.2394600000000000  3.4249000000000001  6.5093399999999999
  3.3989400000000001  8.3702600000000000 23.8197000000000010
  2.0085400000000000  3.9824999999999999  6.1563200000000000
  8.4747000000000003  8.7594300000000000 26.7006000000000014
  9.0575700000000001  8.6873600000000000 25.9322000000000017
  7.6138800000000000  8.3174499999999991 26.4532999999999987
  0.1667460000000000  5.0060599999999997  1.1728400000000001
  0.7776240000000000  4.4199900000000003  1.6380800000000000
  9.3651199999999992  4.8798100000000000  1.5155200000000000
  0.6630509999999999  1.2336600000000000 23.8799999999999990
 10.0167000000000002  5.5476900000000002  4.9318700000000000
  1.4408099999999999  0.8553500000000001 23.4364999999999988
  9.5021000000000004  1.3889100000000001  4.0857400000000004
  8.7251700000000003  1.0238300000000000  5.6953300000000002
  9.1718799999999998  2.0400700000000001  3.4643799999999998
  9.5382700000000007  4.6999599999999999  4.8607399999999998
  7.6314700000000002  3.9495100000000001  2.3013100000000000
 10.1736000000000004  3.9963600000000001  5.0320499999999999
  5.9737600000000004  1.6928000000000001 25.0950999999999986
  6.8099900000000000  1.8622399999999999 24.6118999999999986
  9.8630700000000004  1.5852100000000000 -0.0567530000000000
  9.2134099999999997  1.1237699999999999  0.5134800000000000
  9.3732199999999999  1.6155200000000001  1.3340799999999999
  0.9830420000000000  6.3597799999999998  0.5425460000000000
  7.9467200000000000  4.9033600000000002  2.3703599999999998
  8.3610100000000003  4.9226799999999997  3.2298700000000000
  3.7508599999999999  1.1658800000000000  7.2356100000000003
  6.6498499999999998  3.0052099999999999 29.8142999999999994
  7.3338999999999999  2.6473100000000001 29.1925999999999988
  5.9821499999999999  3.4681099999999998 29.2737000000000016
  8.5885899999999999  0.8036200000000000  6.6419199999999998
  0.7845130000000000  2.2080000000000002 23.5084000000000017
  7.7454400000000003  0.2349350000000000  6.5901500000000004
  6.4463699999999999  6.4252300000000000 24.2773000000000003
  5.7179000000000002  5.9812900000000004 23.7078999999999986
  7.2844699999999998  6.4796600000000000 23.7290999999999990
  3.1854399999999998  7.6474200000000003 24.4257999999999988
  9.5952099999999998  0.5165810000000000  3.5807300000000000
  2.2402400000000000  7.4860199999999999 24.4183999999999983
  3.6928800000000002  6.3802300000000001  6.7140000000000004
  4.1497900000000003  7.1087100000000003  6.3182400000000003
  0.4217100000000000  3.2306499999999998 29.1798000000000002
  0.1761480000000000  3.8298500000000000 29.8705999999999996
  9.9182299999999994  3.3273000000000001 28.4093000000000018
  8.3714800000000000  1.8730199999999999 23.4995000000000012
  8.3147300000000008  1.8928300000000000 22.4624999999999986
  9.2592400000000001  1.4705100000000000 23.6825000000000010
  5.9879199999999999  8.0618200000000009 26.1968999999999994
  5.7019099999999998  0.2017320000000000 26.0012000000000008
  6.0705299999999998  7.5541000000000000 25.3021999999999991
  3.6752899999999999  6.6451900000000004  7.6584399999999997
  1.5558900000000000  7.0965400000000001  0.2810170000000000
  1.0755200000000000  7.7656700000000001 29.9061999999999983
  4.2087700000000003  0.9978870000000000  3.7094499999999999
  3.2267700000000001  1.0277200000000000  3.7255799999999999
  2.9475099999999999  1.0646500000000001  4.6910600000000002
  5.9446599999999998  2.5607300000000000 25.5057000000000009
  1.6382399999999999  5.0711300000000001 26.4988999999999990
  0.9910770000000000  4.4229200000000004 26.8077000000000005
  2.2161599999999999  4.5688700000000004 25.9333999999999989
  4.6329500000000001  1.3796400000000000  7.6480699999999997
  4.8023800000000003  2.3811800000000001  7.4405000000000001
  7.5962699999999996  3.0345100000000000  7.8059399999999997
  6.7017199999999999  2.9983599999999999  7.4778300000000000
  3.7782000000000000  8.1880299999999995 28.7494000000000014
  3.7157800000000001  0.2062540000000000 28.1942999999999984
  0.5325500000000000  7.4181499999999998  3.1134599999999999
  4.4302500000000000  0.0562752000000000 27.5674999999999990
  9.7455300000000005  7.7147800000000002  3.0250200000000000
  8.0487099999999998  2.2328899999999998  7.3779800000000000
  9.5085800000000003  7.4744900000000003  2.0971099999999998
  6.3794599999999999  4.1722200000000003 26.0148000000000010
  6.4293500000000003  4.8065199999999999 25.3049999999999997
  5.5401300000000004  4.3227700000000002 26.5088000000000008
  3.0641300000000000  2.2637999999999998 29.7619000000000007
  3.5614400000000002  1.5993299999999999 29.2029999999999994
  4.7220800000000001  6.7882499999999997  0.2130890000000000
  4.0741500000000004  6.5336200000000000 29.6507000000000005
  0.1627620000000000  6.7804099999999998 24.9691000000000010
  0.8498880000000000  7.3006500000000001 25.4690000000000012
  2.1934900000000002  2.2228900000000000 29.3573999999999984
  1.1992700000000001  6.5726699999999996 26.1528999999999989
  4.5907799999999996  4.2782400000000003 28.4189000000000007
  3.8953400000000000  3.7959800000000001 28.9207000000000001
  4.6404500000000004  5.1784299999999996 28.8081999999999994
  5.8441400000000003  8.5340600000000002  3.0144600000000001
  5.9988999999999999  0.4025820000000000  3.6694399999999998
  4.7059899999999999  4.4991199999999996  3.8704000000000001
  6.4115399999999996 -0.2167610000000000  4.3406300000000000
  5.4784800000000002  4.1470599999999997  4.2173100000000003
  6.0141099999999996  3.4663400000000002  3.7093900000000000
  3.9872500000000000  6.2610900000000003 23.4509000000000007
  0.8748540000000000  7.5696199999999996  6.6225500000000004
 10.0300999999999991  7.7239100000000001  6.6762400000000000
  1.1530600000000000  7.7530900000000003  7.4885500000000000
  2.7148500000000002  4.8290800000000003  4.2199999999999998
  2.1191000000000000  4.3666000000000000  3.6575899999999999
  9.0997500000000002  7.2402600000000001 22.8811000000000000
  9.1593199999999992  6.5153600000000003 23.5354999999999990
  6.6536400000000002  1.5208299999999999  2.5331899999999998
  9.5519999999999996  5.7611999999999997 23.0308999999999990
  6.9086699999999999  2.3937200000000001  2.2247100000000000
  2.6705199999999998  5.7114700000000003  3.8411200000000001
  6.6205999999999996  2.4752600000000000  1.2380899999999999
  2.3143899999999999  0.9211290000000000  6.2267799999999998
  1.7334400000000001  8.9657699999999991  6.2219199999999999
  1.8041600000000000  1.7325900000000001  6.3579400000000001
  8.4718300000000006  3.0332400000000002 27.3902999999999999
  3.1354799999999998  6.7498199999999997 29.9791999999999987
  5.7816500000000000  8.2298700000000000  6.6461699999999997
  6.2510899999999996  7.8391700000000002  5.9210300000000000
  9.6946100000000008  3.7352500000000002 23.3941000000000017
  6.7427200000000003  7.0171200000000002  6.3100500000000004
  0.4421350000000000  3.8757400000000000 23.0404000000000018
  7.8873400000000000  3.5184600000000001 26.8215000000000003
  0.4410510000000000  3.6910400000000001 22.0426000000000002
  9.1965500000000002  5.9712800000000001 28.3036999999999992
  9.0804899999999993  6.7106399999999997 27.6902000000000008
 10.0503999999999998  6.0221700000000000 28.6929000000000016
  1.0069900000000001  3.8702000000000001  7.2971599999999999
  8.5479800000000008  8.3836800000000000  0.2416580000000000
  8.3077000000000005  7.4845600000000001  0.3566170000000000
  2.8730799999999999  8.1829300000000007  3.0325299999999999
  8.3823500000000006  7.0402600000000000 29.6329999999999991
  2.7333099999999999  7.2838599999999998  2.8420700000000001
  2.6171300000000000  7.2002899999999999  1.8823600000000000
  4.3359500000000004  5.3935300000000002 23.2494000000000014
  4.3801399999999999  5.3105500000000001 22.2575000000000003
  8.3185599999999997  2.1445099999999999 27.0968000000000018
  1.8335900000000001  2.9412799999999999  2.2297899999999999
  2.0956600000000001  2.2458499999999999  2.8911199999999999
  2.3078699999999999  2.7488700000000001  1.3338200000000000
  4.0853400000000004  1.0314300000000001 23.1606999999999985
  4.7318600000000002  1.5313900000000000 23.6884000000000015
  4.0419200000000002  1.3475100000000000 22.2756000000000007
  0.9549310000000000  0.0743079000000000 28.4924999999999997
  1.6611100000000001 -0.0992400000000000 27.8828999999999994
  0.1666990000000000  0.1135140000000000 27.9208999999999996
  6.0581399999999999  6.9279099999999998  1.7597799999999999
  6.4047200000000002  6.2192200000000000  2.2707199999999998
  6.8388099999999996  7.1976399999999998  1.2723800000000001
  4.7661899999999999  3.7913800000000002  6.7619199999999999
  5.2601500000000003  4.0376500000000002  5.9132100000000003
  4.3796099999999996  4.7171700000000003  7.0206299999999997
