Cu O  H  O  H  O  H  O  H  O  H  O  H  O  H  O  H  O  H  O  H  O  H  O  H  O  H  O  H  O  H  O  H  O  H  O  H  O  H  O  H  O  H  O  H  O  H  O  H  O  H  O  H  O  H  O  H  O  H  O  H  O  H  O  H  O  H  O  H  O  H  O  H  O  H  O  H  O  H  O  H  O  H  O  H  O  H  O  H  O  H  O  H  O  H  O  H  O  H  O  H 
 1.0000000000000000
    10.1403771778044529    0.0000000000000000    0.0000000000000000
     0.0000000000000000    8.7818242399346058    0.0000000000000000
     0.0000000000000000    0.0000000000000000   30.1311271579000000
 Cu  O   H   O   H   O   H   O   H   O   H   O   H   O   H   O   H   O   H   O   H   O   H   O   H   O   H   O   H   O   H   O   H   O   H   O   H   O   H   O   H   O   H   O   H   O   H   O   H   O   H   O   H   O   H   O   H   O   H   O   H   O   H   O   H   O   H   O   H   O   H   O   H   O   H   O   H   O   H   O   H   O   H   O   H   O   H   O   H   O   H   O   H   O   H   O   H   O   H   O   H  
  96   1   2   1   2   1   2   1   2   1   2   1   2   1   2   1   2   1   2   1   2   1   2   1   2   1   2   1   2   1   2   1   1   1   2   1   2   1   3   1   2   1   2   1   2   1   1   1   2   1   2   1   2   1   2   1   2   1   1   1   2   1   3   1   2   1   2   1   2   1   2   1   2   1   2   1   2   1   2   1   2   1   2   1   4   1   2   1   1   1   2   1   2   1   2   1   2   1   2   1   2
Cartesian
  7.1273700000000000  1.1156599999999999  9.9600399999999993
  9.6414700000000000  1.1681699999999999 10.0424000000000007
  1.8856599999999999  1.0429500000000000 10.0790000000000006
  4.4663500000000003  1.0097700000000001  9.9310899999999993
  8.3178400000000003  3.3477299999999994  9.9873899999999995
  0.7706420000000000  3.3187199999999999  9.9144600000000018
  3.3139799999999999  3.2161599999999999  9.9770800000000026
  5.8154100000000000  3.2581099999999998 10.0457999999999998
  9.5112100000000002  5.6754300000000004  9.9543599999999994
  1.9812200000000000  5.6591399999999989  9.8111200000000007
  4.4783499999999998  5.4573799999999997  9.8425499999999992
  6.9454000000000002  5.5553800000000004 10.0266000000000002
  0.7408820000000000  7.8211599999999999  9.8357100000000006
  3.2452399999999999  7.6171199999999999 10.0146000000000015
  5.8090099999999998  7.7187999999999999  9.7983800000000016
  8.4011800000000001  7.7088299999999990  9.9782799999999998
  5.7372699999999996  1.7310399999999999 11.9270000000000014
  8.2977399999999992  1.6592700000000000 12.0146999999999995
  0.7428369999999999  1.9115800000000001 11.9617000000000022
  3.2720899999999999  1.8868799999999999 11.9728999999999992
  7.0687399999999991  3.9913300000000000 12.0122999999999998
  9.5721699999999998  4.1150900000000004 11.8737000000000013
  1.9463200000000001  4.2097499999999997 11.9215000000000000
  4.3984899999999998  4.1364900000000002 11.8896000000000015
  8.2151599999999991  6.1824499999999993 12.0600000000000005
  0.6648990000000000  6.1792800000000003 11.9414000000000016
  3.0903600000000000  6.3181000000000003 11.9634000000000000
  5.7084599999999996  6.3056500000000000 11.9212000000000025
  9.5010399999999997  8.3763600000000000 12.0352000000000015
  1.8935999999999999  8.3683300000000003 12.0078999999999994
  4.4912400000000003  8.3464399999999994 11.9627999999999997
  6.9304800000000002  8.4273600000000002 12.0056000000000012
  5.7039600000000004  0.3659089999999999 14.0306000000000015
  8.2390600000000003  0.3659089999999999 14.0306000000000015
  0.6337739999999999  0.3659089999999999 14.0306000000000015
  3.1688699999999996  0.3659089999999999 14.0306000000000015
  6.9715100000000003  2.5613700000000001 14.0306000000000015
  9.5066000000000006  2.5613700000000001 14.0306000000000015
  1.9013199999999999  2.5613700000000001 14.0306000000000015
  4.4364200000000000  2.5613700000000001 14.0306000000000015
  8.2390600000000003  4.7568199999999994 14.0306000000000015
  0.6337739999999999  4.7568199999999994 14.0306000000000015
  3.1688699999999996  4.7568199999999994 14.0306000000000015
  5.7039600000000004  4.7568199999999994 14.0306000000000015
  9.5066000000000006  6.9522799999999991 14.0306000000000015
  1.9013199999999999  6.9522799999999991 14.0306000000000015
  4.4364200000000000  6.9522799999999991 14.0306000000000015
  6.9715100000000003  6.9522799999999991 14.0306000000000015
  6.9715100000000003  1.0977300000000001 16.1005000000000003
  9.5066000000000006  1.0977300000000001 16.1005000000000003
  1.9013199999999999  1.0977300000000001 16.1005000000000003
  4.4364200000000000  1.0977300000000001 16.1005000000000003
  8.2390600000000003  3.2931800000000000 16.1005000000000003
  0.6337739999999999  3.2931800000000000 16.1005000000000003
  3.1688699999999996  3.2931800000000000 16.1005000000000003
  5.7039600000000004  3.2931800000000000 16.1005000000000003
  9.5066000000000006  5.4886400000000002 16.1005000000000003
  1.9013199999999999  5.4886400000000002 16.1005000000000003
  4.4364200000000000  5.4886400000000002 16.1005000000000003
  6.9715100000000003  5.4886400000000002 16.1005000000000003
  0.6337739999999999  7.6840999999999999 16.1005000000000003
  3.1688699999999996  7.6840999999999999 16.1005000000000003
  5.7039600000000004  7.6840999999999999 16.1005000000000003
  8.2390600000000003  7.6840999999999999 16.1005000000000003
  5.7655699999999994  2.0436100000000001 18.2859000000000016
  8.1259399999999999  1.8317300000000001 18.3708000000000027
  0.7159310000000000  1.7933599999999998 18.2256000000000000
  3.2407599999999999  1.8158500000000000 18.1611000000000047
  6.9706900000000003  4.1839300000000001 18.3410000000000011
  9.4530200000000004  4.0528000000000004 18.2493000000000016
  1.9915099999999999  3.9769399999999999 18.0867000000000004
  4.4529600000000000  4.0247700000000002 18.1920999999999999
  8.3139500000000002  6.2021599999999992 18.0576000000000008
  0.7249550000000000  6.1381300000000003 18.1609000000000016
  3.0937800000000002  6.1827600000000000 18.2358000000000011
  5.6157199999999987  6.2797400000000003 18.1748000000000047
  9.4549199999999995  8.3742000000000001 18.1197000000000017
  1.9876900000000000  8.4834599999999991 18.1892999999999994
  4.3948999999999998  8.4935700000000001 18.2147000000000041
  6.8636699999999999  8.4308200000000006 18.0701999999999998
  5.8178799999999988  0.4270030000000000 20.1796000000000006
  8.2676200000000009  0.2345030000000000 20.1886000000000010
  0.5474480000000000  0.3427750000000000 20.2188000000000017
  3.1710799999999999  0.2796620000000000 20.2961999999999989
  6.9450500000000002  2.5888000000000000 20.4547000000000025
  9.4548299999999994  2.5336900000000000 20.2820000000000000
  1.9637199999999999  2.5236099999999997 20.2872999999999983
  4.4810699999999999  2.5333399999999999 20.2711000000000006
  8.3135800000000000  4.6462500000000002 20.2094999999999985
  0.6335950000000000  4.7039499999999999 20.1517000000000017
  3.1888600000000000  4.8561600000000000 20.3098000000000027
  5.5974899999999987  4.7559699999999996 20.3040999999999983
  9.5693400000000004  6.9598599999999999 20.1725999999999992
  1.8401700000000001  6.9444900000000001 20.2829000000000015
  4.4072500000000003  6.9482600000000003 20.2142000000000017
  6.9961500000000001  6.8349899999999995 20.0969000000000015
  6.9363599999999996  7.6340399999999997  0.8062910000000000
  7.7645099999999987  7.7204400000000000  1.2931900000000001
  6.5994500000000000  8.5466999999999995  0.7904920000000000
  6.1671300000000002  8.0116999999999994  7.7070300000000005
  6.9874700000000001  7.5813999999999995  7.3524900000000004
  5.4540499999999996  7.6287899999999995  7.1574100000000005
  0.8174820000000000  1.9569399999999999  0.6050320000000001
  4.1344700000000003  0.3970520000000000 23.5667000000000044
  0.2344790000000000  2.2334200000000002 30.0092871579000047
  0.5610860000000000  1.0141600000000000 26.7743000000000002
  0.1000590000000000  0.3138420000000000 26.1955999999999989
  1.2671900000000000  0.5117100000000000 27.1681999999999988
  8.7614199999999993  4.1689200000000000 25.3863999999999983
  9.1212300000000006  4.6989500000000000 24.6929000000000016
  8.3586799999999997  4.8913599999999988 25.9292000000000016
  1.4470300000000000  3.5000499999999999 26.2667999999999999
  4.7837300000000003  2.9093700000000000  6.6155700000000000
  0.6085210000000000  3.9797099999999999 26.0997000000000021
  8.6564599999999992  8.0761299999999991  2.8802300000000001
  6.2577199999999991  1.0564899999999999  6.3711900000000012
  9.6030400000000000  7.9660299999999999  2.8820300000000003
  3.8788600000000000  3.3631299999999995  6.4604100000000004
  8.2885799999999996  1.8214399999999999  7.2529300000000010
  3.2087300000000001  2.6480299999999994  6.6140100000000013
  2.2180399999999998  1.1150300000000000  6.9274699999999996
  1.5817900000000000  0.5683880000000000  6.3584199999999997
  2.6686800000000002  6.4141500000000002  7.2736000000000001
  2.1781100000000002  5.5988100000000003  7.3615899999999996
  2.7183500000000000  4.8402799999999999  6.9984000000000002
  8.5090400000000006  7.6462800000000000 26.2990999999999993
  9.1990300000000005  1.9758199999999999  6.9081599999999996
  9.6582299999999996  2.1029200000000001  7.7399800000000010
  7.8736499999999987  3.3085499999999999 29.4403000000000041
  5.1023699999999996  2.4642599999999999 24.9242999999999988
  5.3209099999999996  3.2309000000000001 24.3327999999999989
  4.6414200000000001  2.8644400000000001 25.7387000000000015
  6.5369400000000004  1.8011999999999999  5.7851700000000008
  1.1140699999999999  2.5056900000000000 26.3250000000000028
  5.8000900000000000  1.7519499999999999  5.0582300000000000
  3.8525399999999994  7.7133499999999993  6.1665299999999998
  3.7886299999999995  7.7391500000000004  5.1725700000000012
  3.4404800000000000  8.5901700000000005  6.3381900000000000
  3.1913000000000000  0.4975200000000000 23.3616000000000028
  8.6368500000000008  0.2260610000000000  3.2684800000000003
  3.0987000000000000  0.4216000000000000 22.4355000000000047
  0.8099330000000000  6.3263299999999996  3.9840300000000002
  0.2369770000000000  5.5990200000000003  4.4009999999999998
  5.6872800000000003  1.3004599999999999  0.7198490000000000
  6.2419300000000000  2.0649500000000001  0.5241900000000000
  5.1603899999999996  1.5505599999999999  1.4784600000000003
  3.6310500000000001  8.1073000000000004  3.4520200000000001
  4.1415300000000004  7.3232900000000001  3.1958600000000006
  2.8036799999999995  8.0236199999999993  2.9246099999999999
  0.7055240000000000  8.7616031399346070 23.5756000000000014
 10.1258873778044531  0.1000370000000000 24.2375000000000007
  1.4724699999999999  0.3965500000000000 24.0231000000000030
  0.9144730000000000  5.9654800000000003  3.0647700000000007
  8.8970000000000002  8.2957999999999998 25.5422000000000011
  8.2896500000000000  0.3309320000000000 25.5860999999999983
  6.0884499999999990  0.1240357600653948 22.5152000000000001
  6.0137999999999998  0.1936340000000000 23.4703000000000053
  6.5603199999999999  0.9837979999999998 23.6115999999999993
  2.0289700000000002  1.0879799999999999  7.8857500000000007
  8.5929800000000007  7.1172599999999999  6.8669100000000007
  8.8200199999999995  7.0683400000000001  7.7911500000000009
  9.0804399999999994  6.3065800000000003  6.6688499999999999
  7.2133700000000003  3.4478900000000001  0.1207340000000000
  7.6456799999999996  3.7678199999999999  0.9738850000000000
  0.6512549999999999  8.3372799999999998  5.5458699999999999
 10.1369000000000007  7.8602999999999987  6.0594000000000001
  1.9697499999999999  3.7241700000000000 24.8355999999999995
  2.2755600000000000  3.7289800000000000 23.8652000000000015
  1.3996000000000000  5.4173400000000003 23.6829999999999998
  2.8270800000000000  2.9652200000000000 23.8233000000000033
  0.6060280000000000  5.9276200000000001 23.9477000000000011
  0.8628650000000001  7.7387300000000003  4.8421300000000000
  0.6727470000000000  6.8242300000000000 23.5056000000000047
  4.1884800000000002  4.0631599999999999 27.4069000000000003
  5.0048800000000000  4.3876700000000000 27.8796999999999997
  3.6579000000000002  3.5675900000000000 28.0826999999999991
  9.2069299999999998  3.0595200000000000 28.4276000000000018
  9.8755500000000005  3.7974399999999999 28.3873000000000033
  9.3200500000000002  5.3813899999999997 22.8410000000000046
  8.3610100000000003  5.3252800000000002 22.5289000000000001
  7.7759999999999998  2.6450999999999998 25.7089000000000034
  7.6412699999999996  1.7213599999999998 25.5313000000000017
  9.1300600000000003  2.5146600000000001 27.6731000000000016
  6.6143599999999987  1.6987399999999997 25.5461000000000027
  1.8778700000000002  7.9375099999999996  1.0265300000000002
  1.2828599999999999  7.3039899999999998  0.5698190000000000
  1.4684800000000000  8.7802835599346061  0.8547370000000000
  5.8704499999999999  6.6213800000000003  1.7693100000000002
  5.2041199999999996  6.0869600000000004  2.2775900000000000
  4.7293500000000002  4.9545899999999996 22.6301999999999985
  5.6590800000000003  5.6520900000000003  3.0123000000000002
  5.6117499999999989  4.6989099999999997 23.0058000000000007
  5.9846699999999995  5.4265999999999996 23.5368999999999993
  0.0860490000000000  4.4633699999999994  1.5674500000000000
  7.7014599999999991  5.5526299999999997  4.1022499999999997
  7.5041500000000001  5.6964699999999997  5.0167400000000004
  7.8235400000000004  6.4947600000000003  3.7592500000000002
  9.9070281778044542  2.7140700000000000 22.9455999999999989
  0.1323160000000000  1.8725700000000001 23.2922000000000047
  3.8154100000000000  4.2693500000000002  2.0295600000000000
  3.2391200000000007  3.5625399999999998  2.2901899999999999
  4.3822200000000002  0.9588820000000000  3.3827199999999999
  2.3807399999999999  4.0129500000000000  2.0626799999999998
  4.9062400000000004  1.8094300000000001  3.4879500000000005
  0.5631119999999999  3.2794999999999996 23.1724999999999994
  4.3049099999999996  2.5061200000000001  3.4644699999999999
  1.9176700000000000  7.9298299999999999 28.2221000000000011
  2.4014000000000002  7.3879500000000000 27.5988000000000007
  2.5759699999999999  8.3233899999999998 28.8108000000000004
  8.6164699999999996  1.7201400000000000  4.1022900000000000
  8.0282699999999991  6.2058499999999999 22.6276000000000010
  6.8376700000000001  3.4744700000000002 22.7348000000000035
  7.3237500000000004  2.6194600000000001 22.6008999999999993
  8.8045600000000004  2.9661599999999999  2.5428900000000003
  8.2650000000000006  2.7437700000000000 22.7114000000000047
  8.7090099999999993  3.8843299999999998  2.1956300000000000
  9.3305600000000002  1.6834300000000000  4.7161900000000010
  8.6080900000000007  4.4112600000000004  3.0485300000000000
  6.3749599999999997  5.0564999999999989  6.3528100000000007
  5.8331900000000001  4.4686700000000004  5.8265099999999999
  6.3925599999999996  4.6419499999999996  7.2166200000000007
  0.8508380000000000  2.7551299999999999  1.0639100000000001
  3.4355599999999997  5.6810299999999998 26.2326000000000050
  3.0876800000000002  6.5317199999999991 25.9709000000000039
  4.0883300000000000  1.8728100000000001 29.9660000000000011
  2.3131300000000001  6.4888100000000000 25.4116999999999997
  3.3622899999999998  2.2815500000000002 29.4726000000000035
  2.6872199999999999  2.3631500000000001  0.1005650000000000
  1.0213099999999999  4.7773500000000002  1.5007600000000001
  1.1390100000000001  5.0386699999999998  0.5773800000000001
  7.8847199999999997  1.5910899999999999  4.8258599999999996
  5.9350699999999996  6.7287400000000002 24.7423000000000037
  5.0281000000000002  6.9698599999999988 24.9024999999999999
  6.3843300000000003  7.4359400000000004 24.2353000000000023
  6.2768199999999990  5.5918900000000002 28.9073999999999991
  6.3493499999999994  6.3941100000000004 29.4833999999999996
  6.5713900000000001  4.8184300000000002 29.5552000000000028
  0.8421080000000000  5.1423100000000002 28.8597999999999999
  0.8463349999999998  6.1259499999999996 28.6210000000000022
  1.4949800000000000  4.7960200000000004 28.2464000000000048
  7.6381599999999992  6.1373400000000000 26.7967000000000048
  7.0935600000000001  5.9375099999999987 27.5965999999999987
  6.9729900000000002  6.2848800000000002 26.0663000000000018
 10.0219000000000005  4.7535999999999996  6.2067100000000002
  9.7337699999999998  3.9640100000000000  6.7316900000000013
  0.7510040000000000  4.9564599999999999  6.5044000000000004
