Cu O  H  O  H  O  H  O  H  O  H  O  H  O  H  O  H  O  H  O  H  O  H  O  H  O  H  O  H  O  H  O  H  O  H  O  H  O  H  O  H  O  H  O  H  O  H  O  H  O  H  O  H  O  H  O  H  O  H  O  H  O  H  O  H  O  H  O  H  O  H  O  H  O  H  O  H  O  H  O  H  O  H  O  H  O  H  O  H  O  H  O  H  O  H  O  H  O  H  O  H 
 1.0000000000000000
    10.1403771778044529    0.0000000000000000    0.0000000000000000
     0.0000000000000000    8.7818242399346058    0.0000000000000000
     0.0000000000000000    0.0000000000000000   30.1311271579000000
 Cu  O   H   O   H   O   H   O   H   O   H   O   H   O   H   O   H   O   H   O   H   O   H   O   H   O   H   O   H   O   H   O   H   O   H   O   H   O   H   O   H   O   H   O   H   O   H   O   H   O   H   O   H   O   H   O   H   O   H   O   H   O   H   O   H   O   H   O   H   O   H   O   H   O   H   O   H   O   H   O   H   O   H   O   H   O   H   O   H   O   H   O   H   O   H   O   H   O   H   O   H  
  96   1   2   1   2   1   2   1   2   1   2   1   2   1   2   1   2   1   2   1   2   1   2   1   2   1   2   1   2   1   2   1   1   1   2   1   2   1   3   1   2   1   2   1   2   1   1   1   2   1   2   1   2   1   2   1   2   1   1   1   2   1   3   1   2   1   2   1   2   1   2   1   2   1   2   1   2   1   2   1   2   1   2   1   4   1   2   1   1   1   2   1   2   1   2   1   2   1   2   1   2
Cartesian
  7.0357399999999997  0.9792860000000000  9.8733199999999997
  9.4555000000000007  1.0955400000000000  9.8938400000000009
  1.9421400000000000  0.9341500000000000  9.9345499999999998
  4.5990300000000000  1.0974699999999999 10.0275999999999996
  8.2202199999999994  3.2361599999999999 10.0155999999999992
  0.6509080000000000  3.1977400000000000  9.9742800000000003
  3.1783199999999998  3.1970700000000001  9.9438099999999991
  5.7320399999999996  3.2150400000000001  9.9818200000000008
  9.4274900000000006  5.4307699999999999  9.8735700000000008
  1.7128000000000001  5.3520000000000003  9.9605200000000007
  4.4789300000000001  5.3701900000000000  9.9389400000000006
  7.0011999999999999  5.3413399999999998  9.9196200000000001
  0.6139350000000000  7.6641500000000002  9.8912099999999992
  3.1881900000000001  7.5738099999999999  9.8324200000000008
  5.9417999999999997  7.6171400000000000  9.8908100000000001
  8.3186199999999992  7.6065199999999997 10.0786999999999995
  5.7229999999999999  1.9164399999999999 12.0198999999999998
  8.2329200000000000  1.7481000000000000 11.9074000000000009
  0.6434250000000000  1.6489300000000000 11.9688999999999997
  3.1187800000000001  1.6715800000000001 12.1428999999999991
  7.0040100000000001  3.8867900000000000 12.0632999999999999
  9.5029000000000003  4.0216700000000003 12.0023000000000000
  1.8206199999999999  3.9134400000000000 11.8958999999999993
  4.4076300000000002  3.9521799999999998 11.9190000000000005
  8.2040699999999998  6.0981199999999998 11.9192000000000000
  0.4831180000000000  6.1691900000000004 11.9825999999999997
  3.0556700000000001  6.0980299999999996 11.9453999999999994
  5.7371299999999996  6.0963700000000003 12.0713000000000008
  9.4100999999999999  8.3688900000000004 12.0536999999999992
  2.0194899999999998  8.3049400000000002 12.0358000000000001
  4.4450099999999999  8.1805199999999996 11.8617000000000008
  6.8390899999999997  8.3836399999999998 12.0405999999999995
  5.7039600000000004  0.3659090000000000 14.0305999999999997
  8.2390600000000003  0.3659090000000000 14.0305999999999997
  0.6337739999999999  0.3659090000000000 14.0305999999999997
  3.1688700000000001  0.3659090000000000 14.0305999999999997
  6.9715100000000003  2.5613700000000001 14.0305999999999997
  9.5066000000000006  2.5613700000000001 14.0305999999999997
  1.9013199999999999  2.5613700000000001 14.0305999999999997
  4.4364200000000000  2.5613700000000001 14.0305999999999997
  8.2390600000000003  4.7568200000000003 14.0305999999999997
  0.6337739999999999  4.7568200000000003 14.0305999999999997
  3.1688700000000001  4.7568200000000003 14.0305999999999997
  5.7039600000000004  4.7568200000000003 14.0305999999999997
  9.5066000000000006  6.9522800000000000 14.0305999999999997
  1.9013199999999999  6.9522800000000000 14.0305999999999997
  4.4364200000000000  6.9522800000000000 14.0305999999999997
  6.9715100000000003  6.9522800000000000 14.0305999999999997
  6.9715100000000003  1.0977300000000001 16.1005000000000003
  9.5066000000000006  1.0977300000000001 16.1005000000000003
  1.9013199999999999  1.0977300000000001 16.1005000000000003
  4.4364200000000000  1.0977300000000001 16.1005000000000003
  8.2390600000000003  3.2931800000000000 16.1005000000000003
  0.6337739999999999  3.2931800000000000 16.1005000000000003
  3.1688700000000001  3.2931800000000000 16.1005000000000003
  5.7039600000000004  3.2931800000000000 16.1005000000000003
  9.5066000000000006  5.4886400000000002 16.1005000000000003
  1.9013199999999999  5.4886400000000002 16.1005000000000003
  4.4364200000000000  5.4886400000000002 16.1005000000000003
  6.9715100000000003  5.4886400000000002 16.1005000000000003
  0.6337739999999999  7.6840999999999999 16.1005000000000003
  3.1688700000000001  7.6840999999999999 16.1005000000000003
  5.7039600000000004  7.6840999999999999 16.1005000000000003
  8.2390600000000003  7.6840999999999999 16.1005000000000003
  5.7029899999999998  1.8141200000000000 18.1027999999999984
  8.2849599999999999  1.7754099999999999 18.1813000000000002
  0.4997280000000000  1.8104499999999999 18.0533999999999999
  3.1350500000000001  1.8543600000000000 18.1472000000000016
  6.9848400000000002  3.9365399999999999 18.1421999999999990
  9.4655299999999993  4.0949099999999996 18.2131000000000007
  1.8407800000000001  4.1140800000000004 18.2726000000000006
  4.4152899999999997  4.1296999999999997 18.2417000000000016
  8.2672500000000007  6.1861600000000001 18.1401000000000003
  0.6064520000000000  6.3279699999999997 18.1539000000000001
  3.1795300000000002  6.2165999999999997 18.1573999999999991
  5.7961700000000000  6.1674600000000002 18.1202000000000005
  9.5653799999999993  8.3687100000000001 18.1837000000000018
  2.0013299999999998  8.5300600000000006 18.0673999999999992
  4.5138400000000001  8.3915199999999999 18.0985000000000014
  6.8577100000000000  8.4425299999999996 18.1126000000000005
  5.8442100000000003  0.4210370000000000 20.1324000000000005
  8.3649100000000001  0.2942280000000000 20.2140999999999984
  0.6900320000000000  0.3548660000000000 20.1480999999999995
  3.2485599999999999  0.3425630000000000 19.9655999999999985
  7.0257500000000004  2.5038900000000002 20.2532999999999994
  9.5940899999999996  2.5434399999999999 20.2334999999999994
  1.8882399999999999  2.4506000000000001 20.1938999999999993
  4.6098800000000004  2.4828399999999999 20.1640000000000015
  8.3339200000000009  4.7219400000000000 20.3031000000000006
  0.7521040000000000  4.8217299999999996 20.2389000000000010
  3.2337500000000001  4.8368200000000003 20.3212000000000010
  5.5847300000000004  4.7469000000000001 20.0703999999999994
  9.4173899999999993  6.8251400000000002 20.2256999999999998
  2.0380300000000000  7.0120100000000001 20.1780000000000008
  4.5612399999999997  7.0423499999999999 20.2118000000000002
  7.0753399999999997  6.9092300000000000 20.2595999999999989
  5.1482700000000001  2.4451100000000001  2.1231599999999999
  5.4490400000000001  2.9510500000000000  1.3909400000000001
  4.1209400000000000  2.4937000000000000  2.1341899999999998
  6.9806800000000004  3.1560199999999998  4.1762100000000002
  7.8387599999999997  3.5230700000000001  3.9403800000000002
  6.5713200000000001  2.8132799999999998  3.3231400000000000
  3.6557100000000000  2.4258500000000001 22.2007000000000012
  9.5308399999999995  0.0871061000000000  3.4864799999999998
  2.7316500000000001  2.2210200000000002 22.2843000000000018
  8.0098599999999998  0.4626330000000000 23.5920999999999985
  8.0478699999999996  0.9917110000000000 22.7433000000000014
  8.7679899999999993 -0.1031370000000000 23.5043000000000006
  5.9409799999999997  8.5836600000000001 30.0749999999999993
  6.8084199999999999 -0.0482073000000000  0.3379230000000000
  5.6883400000000002  0.5838130000000000 29.5472999999999999
  0.5936740000000000  3.4258199999999999 23.7407000000000004
  9.8552800000000005  8.2620699999999996 29.2368999999999986
  9.7805700000000009  3.6095899999999999 23.5000999999999998
  6.9962499999999999  7.0331900000000003  3.2071000000000001
  7.4568300000000001  5.7362599999999997  6.2417999999999996
  7.6190400000000000  7.7609500000000002  3.4325100000000002
 10.1361000000000008  8.2375299999999996 30.1517000000000017
  0.9230840000000000  7.2482899999999999 26.8978999999999999
  9.8191299999999995  7.3415900000000001  0.3021850000000000
  6.4917499999999997  5.4201100000000002 26.4326000000000008
  6.2135999999999996  6.0372700000000004 25.7066000000000017
  1.0976500000000000  7.5444000000000004 23.5047999999999995
 10.3004999999999995  7.2332900000000002 23.9217000000000013
 10.0350999999999999  6.5692500000000003 23.2787000000000006
  2.8895700000000000  7.0044300000000002  4.4964399999999998
  0.1440580000000000  6.8283899999999997 26.6077000000000012
  0.0332194000000000  6.9102899999999998 25.6233000000000004
  8.9409200000000002  0.3945160000000000  0.6472740000000000
  2.6753800000000001  5.1982400000000002 24.6046000000000014
  2.6534499999999999  5.3756300000000001 25.5605000000000011
  3.5496300000000001  5.0343799999999996 24.2591000000000001
  8.3694199999999999  5.5963500000000002  6.5867300000000002
  1.0974900000000001  4.2033199999999997 23.9456999999999987
  8.2803799999999992  5.8130499999999996  7.5573199999999998
  2.6949500000000000  2.4428100000000001  3.7109600000000000
  2.9433099999999999  2.5346899999999999  4.6184500000000002
  1.9536000000000000  1.8355200000000000  3.7072099999999999
  8.5933600000000006  0.2403400000000000  3.6580400000000002
  7.0361900000000004  6.7495399999999997  2.3025400000000000
  8.7903400000000005  0.2263140000000000  4.6254099999999996
  4.0017800000000001  3.5494900000000000 29.5808999999999997
  3.1278199999999998  3.1274899999999999 29.4792999999999985
  1.4450300000000000  2.4226500000000000 28.8012000000000015
  1.0631100000000000  3.0819700000000001 28.1656000000000013
  0.7551010000000000  2.1591700000000000 29.3907999999999987
  6.2360499999999996  7.6106999999999996  7.6616600000000004
  6.5568299999999997  8.3432300000000001  7.1321700000000003
  5.4569099999999997  7.1808699999999996  7.1883400000000002
  2.7459799999999999  7.7573200000000000 23.4831000000000003
  2.8313400000000000  6.7950900000000001 23.8283999999999985
  3.2797800000000001  7.7424999999999997 22.6550000000000011
  3.7533799999999999  4.4543200000000001 29.4810000000000016
  2.1192000000000002  6.5517099999999999  4.0621700000000001
  1.6416400000000000  6.1159699999999999  4.7976200000000002
  7.8581799999999999  2.8306300000000002 -0.2921360000000000
  7.9083500000000004  3.7914500000000002 29.6360999999999990
  8.5751600000000003  3.8756699999999999 28.9331999999999994
  6.3095900000000000  4.5302499999999997 26.1560999999999986
  2.4451000000000001  0.5333070000000000  0.6489509999999999
  3.2493300000000001  8.8257100000000008  0.6222520000000000
  1.8579000000000001  8.7030100000000008  0.2016650000000000
  8.1790599999999998  0.8948510000000000  1.0105800000000000
  8.1661099999999998  0.9244280000000000  1.9942800000000001
  0.9181260000000000  5.9012900000000004  6.2992400000000002
  1.0916800000000000  6.7907900000000003  6.7069700000000001
  2.2415799999999999  0.3412350000000000 24.2084000000000010
  2.3945200000000000  1.0108900000000001 24.8536000000000001
  1.3002400000000001  2.5950700000000002  7.3654700000000002
  1.7713200000000000  1.7818600000000000 24.6458000000000013
  1.2681600000000000  2.9992999999999999  6.4721599999999997
 10.1194000000000006  5.7973100000000004  6.2214099999999997
  1.0903499999999999  3.9369999999999998  6.6598800000000002
  9.7163799999999991  5.7132800000000001  1.1934300000000000
  9.0574300000000001  5.3502200000000002  0.6094900000000000
  0.3372290000000000  5.1620100000000004  1.2403599999999999
  1.9693300000000000  4.8097500000000002  1.9093800000000001
  1.9800300000000000  3.8875999999999999  2.1870400000000001
  6.5738500000000002  5.1401599999999998 30.3606000000000016
  6.5471199999999996  6.0557299999999996  0.6005070000000000
  5.3230300000000002  7.9129100000000001  2.9746600000000001
  4.3790899999999997  8.0987700000000000  3.1109599999999999
  2.1274000000000002  5.4085500000000000  2.7570399999999999
  4.1730099999999997  0.1687550000000000  2.6765699999999999
  3.2850000000000001  6.5307300000000001  0.0839660000000000
  2.7673999999999999  5.8711099999999998  0.6124800000000000
  4.1102800000000004  6.6122500000000004  0.5389580000000000
  1.6509300000000000  8.5599699999999999  7.8735400000000002
  1.5413800000000000  8.5089600000000001  6.8888400000000001
  8.1003799999999995  1.4051300000000000 26.1915000000000013
  2.1180200000000000  0.4885540000000000  6.5697599999999996
  8.0013299999999994  2.3458000000000001 25.9025999999999996
  7.9529100000000001  2.2345299999999999 24.9435000000000002
  4.8389499999999996  0.4734870000000000 26.7117000000000004
  4.1608999999999998  6.5678400000000003  6.5414899999999996
  3.3778100000000002  6.1716899999999999  6.9739100000000001
  4.6708600000000002  5.8877100000000002  6.0730199999999996
  3.9672399999999999  1.2564800000000000  6.1197499999999998
  4.2006399999999999  0.5359910000000000  5.5355200000000000
  8.5275400000000001  3.7788599999999999  6.6045100000000003
  8.3703800000000008  2.8151000000000002  6.5678400000000003
  8.8107699999999998  1.2336400000000001  6.5705499999999999
  7.9370000000000003  2.6215099999999998  5.6919599999999999
  8.8883200000000002  0.3375300000000000  6.2316700000000003
  4.7092900000000002  1.8856800000000000  6.3287699999999996
  9.7412600000000005  8.7822899999999997  6.6246200000000002
  5.4154600000000004  3.2945199999999999  6.9212800000000003
  4.9413700000000000  3.2040099999999998  7.8073100000000002
  6.3725399999999999  3.0689099999999998  7.1216799999999996
  5.1785800000000002  5.0743600000000004 23.6065000000000005
  6.2168900000000002  6.6618599999999999 -0.1136500000000000
  1.4747300000000001  0.4246750000000000 27.7701999999999991
  1.9393800000000001  8.3603600000000000 27.7081000000000017
  7.7633700000000001  7.6469699999999996 27.9741000000000000
  2.7136800000000001  8.5931400000000000 27.1372999999999998
  8.4333299999999998  8.2632499999999993 27.6708999999999996
  5.1711900000000002  4.9813900000000002 22.5873999999999988
  9.0597200000000004  7.6924900000000003 27.2026000000000003
  3.3036500000000002  5.8129999999999997 27.0543000000000013
  3.1233100000000000  6.7042299999999999 27.4142000000000010
  4.2424099999999996  5.4688699999999999 27.1721000000000004
  4.0887799999999999  2.0171500000000000 22.9645000000000010
  9.1392799999999994  5.2812999999999999  4.2213599999999998
  9.3943800000000000  4.4239699999999997  3.8903500000000002
  6.9507099999999999  3.3786600000000000 22.4706000000000010
  9.3819800000000004  4.4983599999999999  2.9448599999999998
  7.6040200000000002  3.5912500000000001 23.1709999999999994
  7.2982300000000002  4.4438500000000003 23.4603999999999999
  4.3978999999999999 -0.0313708000000000 26.0380000000000003
  3.7472699999999999  0.5764040000000000 25.5783999999999985
  5.5143100000000000  6.0073299999999996 23.7771000000000008
  5.5854799999999996  1.8124600000000000 28.1719000000000008
  4.9759500000000001  2.4761000000000002 28.6005000000000003
  6.1554200000000003  2.2961900000000002 27.4847000000000001
  9.6618300000000001  4.0986599999999997 27.1480999999999995
  9.7120700000000006  5.0216799999999999 26.7480000000000011
  8.8957099999999993  3.6223100000000001 26.7883999999999993
  1.0426700000000000  0.3401220000000000  3.0174300000000001
  1.5314000000000001  0.4682820000000000  2.1154199999999999
  1.5229699999999999  8.3912800000000001  3.4998399999999998
  6.3245100000000001  7.3213499999999998 24.5364000000000004
  5.5890199999999997  7.8927600000000000 24.8284999999999982
  7.0213200000000002  7.9760400000000002 24.2667999999999999
  6.1049199999999999  5.4996999999999998  5.1043000000000003
  6.3736800000000002  6.0264699999999998  4.1830900000000000
  6.2819099999999999  4.5637900000000000  4.8347499999999997
