Cu O  H  O  H  O  H  O  H  O  H  O  H  O  H  O  H  O  H  O  H  O  H  O  H  O  H  O  H  O  H  O  H  O  H  O  H  O  H  O  H  O  H  O  H  O  H  O  H  O  H  O  H  O  H  O  H  O  H  O  H  O  H  O  H  O  H  O  H  O  H  O  H  O  H  O  H  O  H  O  H  O  H  O  H  O  H  O  H  O  H  O  H  O  H  O  H  O  H  O  H 
 1.0000000000000000
    10.1403771778044529    0.0000000000000000    0.0000000000000000
     0.0000000000000000    8.7818242399346058    0.0000000000000000
     0.0000000000000000    0.0000000000000000   30.1311271579000000
 Cu  O   H   O   H   O   H   O   H   O   H   O   H   O   H   O   H   O   H   O   H   O   H   O   H   O   H   O   H   O   H   O   H   O   H   O   H   O   H   O   H   O   H   O   H   O   H   O   H   O   H   O   H   O   H   O   H   O   H   O   H   O   H   O   H   O   H   O   H   O   H   O   H   O   H   O   H   O   H   O   H   O   H   O   H   O   H   O   H   O   H   O   H   O   H   O   H   O   H   O   H  
  96   1   2   1   2   1   2   1   2   1   2   1   2   1   2   1   2   1   2   1   2   1   2   1   2   1   2   1   2   1   2   1   1   1   2   1   2   1   3   1   2   1   2   1   2   1   1   1   2   1   2   1   2   1   2   1   2   1   1   1   2   1   3   1   2   1   2   1   2   1   2   1   2   1   2   1   2   1   2   1   2   1   2   1   4   1   2   1   1   1   2   1   2   1   2   1   2   1   2   1   2
Cartesian
  6.9874200000000002  1.0623300000000000  9.7339599999999997
  9.6220900000000000  1.0470800000000000  9.9395900000000008
  1.9395899999999999  1.0149300000000001  9.9070999999999998
  4.4816300000000000  1.0308100000000000  9.9111799999999999
  8.2892499999999991  3.3424499999999999 10.0442999999999998
  0.5782420000000000  3.1609200000000000 10.0631000000000004
  3.0797500000000002  3.2838900000000000  9.9030600000000000
  5.7053599999999998  3.1960000000000002  9.8794500000000003
  9.4276199999999992  5.4194500000000003 10.0146999999999995
  1.8702399999999999  5.4241000000000001  9.8467800000000008
  4.4007800000000001  5.3786199999999997  9.8519600000000001
  6.8673700000000002  5.3313400000000000  9.7877899999999993
  0.6310690000000000  7.6653099999999998  9.7631399999999999
  3.3132700000000002  7.5488700000000000  9.7919300000000007
  5.7128600000000000  7.7724299999999999  9.9312900000000006
  8.0792699999999993  7.6129400000000000  9.9957799999999999
  5.7843099999999996  1.7971200000000001 11.7757000000000005
  8.2041599999999999  1.6758999999999999 11.9585000000000008
  0.5466160000000000  1.7220700000000000 11.9232999999999993
  3.1583199999999998  1.7180400000000000 12.0060000000000002
  6.9528200000000000  4.0043699999999998 12.0279000000000007
  9.5502699999999994  4.0939500000000004 11.9185999999999996
  1.9438500000000001  3.9472200000000002 11.9733000000000001
  4.4875100000000003  3.9430499999999999 11.9185999999999996
  8.1687399999999997  6.1515100000000000 11.9869000000000003
  0.7480650000000000  6.0832199999999998 11.9342000000000006
  3.2111700000000001  6.0299199999999997 11.8513999999999999
  5.6821999999999999  6.2192999999999996 11.7955000000000005
  9.6367799999999999  8.1900700000000004 11.9311000000000007
  1.9621000000000000  8.2757500000000004 11.8576999999999995
  4.4126399999999997  8.4052799999999994 11.9382999999999999
  6.9252700000000003  8.4360599999999994 11.9626999999999999
  5.7039600000000004  0.3659090000000000 14.0305999999999997
  8.2390600000000003  0.3659090000000000 14.0305999999999997
  0.6337739999999999  0.3659090000000000 14.0305999999999997
  3.1688700000000001  0.3659090000000000 14.0305999999999997
  6.9715100000000003  2.5613700000000001 14.0305999999999997
  9.5066000000000006  2.5613700000000001 14.0305999999999997
  1.9013199999999999  2.5613700000000001 14.0305999999999997
  4.4364200000000000  2.5613700000000001 14.0305999999999997
  8.2390600000000003  4.7568200000000003 14.0305999999999997
  0.6337739999999999  4.7568200000000003 14.0305999999999997
  3.1688700000000001  4.7568200000000003 14.0305999999999997
  5.7039600000000004  4.7568200000000003 14.0305999999999997
  9.5066000000000006  6.9522800000000000 14.0305999999999997
  1.9013199999999999  6.9522800000000000 14.0305999999999997
  4.4364200000000000  6.9522800000000000 14.0305999999999997
  6.9715100000000003  6.9522800000000000 14.0305999999999997
  6.9715100000000003  1.0977300000000001 16.1005000000000003
  9.5066000000000006  1.0977300000000001 16.1005000000000003
  1.9013199999999999  1.0977300000000001 16.1005000000000003
  4.4364200000000000  1.0977300000000001 16.1005000000000003
  8.2390600000000003  3.2931800000000000 16.1005000000000003
  0.6337739999999999  3.2931800000000000 16.1005000000000003
  3.1688700000000001  3.2931800000000000 16.1005000000000003
  5.7039600000000004  3.2931800000000000 16.1005000000000003
  9.5066000000000006  5.4886400000000002 16.1005000000000003
  1.9013199999999999  5.4886400000000002 16.1005000000000003
  4.4364200000000000  5.4886400000000002 16.1005000000000003
  6.9715100000000003  5.4886400000000002 16.1005000000000003
  0.6337739999999999  7.6840999999999999 16.1005000000000003
  3.1688700000000001  7.6840999999999999 16.1005000000000003
  5.7039600000000004  7.6840999999999999 16.1005000000000003
  8.2390600000000003  7.6840999999999999 16.1005000000000003
  5.6844099999999997  1.8614299999999999 18.1687000000000012
  8.2026000000000003  1.6926600000000001 18.0947999999999993
  0.5113750000000000  1.7960900000000000 18.1127000000000002
  3.0865499999999999  1.8407899999999999 18.1283999999999992
  7.0292700000000004  3.9814200000000000 18.1787999999999990
  9.5192300000000003  4.0740400000000001 18.0475999999999992
  1.8388400000000000  4.0180300000000004 18.1282999999999994
  4.4270500000000004  4.0271600000000003 18.1327999999999996
  8.1863200000000003  6.0730800000000000 18.1987999999999985
  0.5251410000000000  6.2408400000000004 18.2613999999999983
  3.1775600000000002  6.2062499999999998 18.1678999999999995
  5.6644399999999999  6.2500799999999996 18.1519000000000013
  9.4334399999999992  8.2455700000000007 18.1446000000000005
  1.9766699999999999  8.5125799999999998 18.0745000000000005
  4.4804700000000004  8.3875700000000002 18.1468999999999987
  6.9977499999999999  8.3334600000000005 18.1322000000000010
  5.7368699999999997  0.1341070000000000 20.1283999999999992
  8.1294799999999992  0.3834690000000000 20.1668999999999983
  0.5969690000000000  0.3324100000000000 20.1204000000000001
  3.2256000000000000  0.3497920000000000 20.1942999999999984
  6.9900399999999996  2.4831699999999999 20.1991000000000014
  9.5847700000000007  2.5241199999999999 20.1628000000000007
  1.9081399999999999  2.4924900000000001 20.0539999999999985
  4.4022300000000003  2.5374099999999999 20.2286000000000001
  8.1564999999999994  4.5892600000000003 20.2252000000000010
  0.6253940000000000  4.5829700000000004 20.2485999999999997
  3.2031499999999999  4.7418500000000003 20.1350000000000016
  5.6254700000000000  4.6591600000000000 20.2436000000000007
  9.4834499999999995  6.8180899999999998 20.2761999999999993
  1.9415500000000001  6.8590499999999999 20.2261999999999986
  4.2727800000000000  6.9195799999999998 20.2848000000000006
  6.9828000000000001  6.7668200000000001 20.1785999999999994
  4.3624499999999999  2.0374300000000001  0.6472710000000000
  5.2354099999999999  2.2949799999999998  0.2712330000000000
  3.7170000000000001  1.9185399999999999 30.0549999999999997
  3.3748700000000000  3.8303900000000000  2.7683300000000002
  4.0949000000000000  4.4521699999999997  2.5196299999999998
  3.6460300000000001  3.0687500000000001  2.1667999999999998
  1.6454400000000000  3.5747800000000001 26.6719000000000008
  7.4494600000000002  0.8404540000000000  4.4039200000000003
  2.4668399999999999  3.1169699999999998 26.7592999999999996
  4.7789900000000003  7.4220100000000002 23.3738999999999990
  5.4412200000000004  6.8367399999999998 22.9177000000000000
  3.9221300000000001  7.3100399999999999 22.9499999999999993
  4.6405099999999999  6.7255399999999996 26.2666000000000004
  4.7637099999999997  6.6716400000000000 25.2620000000000005
  3.7258499999999999  6.3708600000000004 26.3023999999999987
  8.4607500000000009  4.8960600000000003 26.2256999999999998
  6.4050700000000003  0.3228630000000000 27.3765999999999998
  7.6104599999999998  4.8440799999999999 26.7476999999999983
  5.4916299999999998  7.6160300000000003  2.9348900000000002
  5.2881799999999997  3.4849999999999999  5.9057700000000004
  6.1925499999999998  8.1657100000000007  2.4948999999999999
  5.5368300000000001  0.4010360000000000 26.9701999999999984
  9.6860700000000008  4.0773200000000003 29.3085999999999984
  5.1501999999999999  8.2642000000000007 26.9817999999999998
  9.2262000000000004  2.3375599999999999 25.8562000000000012
  9.6571099999999994  1.7619100000000001 25.2084000000000010
  9.3682400000000001  7.9474700000000000 25.5383999999999993
  9.7899600000000007  7.4349499999999997 26.2993999999999986
  9.3429900000000004  6.5862400000000001 26.1673000000000009
  0.6951290000000000  2.7191200000000002  6.8774899999999999
  0.3078250000000000  3.5482200000000002 29.6785999999999994
  0.6175020000000000  4.0445599999999997  0.3434890000000000
  7.1888100000000001  0.3893500000000000 29.7485999999999997
  9.4799000000000007  6.7457000000000003 22.3069999999999986
  8.7391900000000007  6.2154999999999996 22.5948999999999991
  0.2572960000000000  6.5923100000000003 22.7184999999999988
  6.2457500000000001  3.6353399999999998  5.9499399999999998
  8.5840200000000006  4.0030299999999999 25.8436999999999983
  6.5998200000000002  3.6665899999999998  5.0236799999999997
  9.3952600000000004  1.6285900000000000  1.2625500000000001
  9.9178300000000004  1.9439000000000000  0.4609110000000000
 -0.1185190000000000  1.2816399999999999  1.9013500000000001
  7.6667699999999996  0.7644950000000000  3.5140199999999999
  5.5794300000000003  7.8014099999999997  3.8708100000000001
  8.5175400000000003  0.2186710000000000  3.4665200000000000
  8.0845900000000004  1.1645500000000000 27.9048000000000016
  8.6851599999999998  0.6989830000000000 28.4969000000000001
  1.9517000000000000  7.2765199999999997  0.1820410000000000
  2.2344200000000001  7.8986900000000002  0.8793390000000000
  2.7855900000000000  6.9907500000000002 29.9096000000000011
  5.9061000000000003  8.6154899999999994  5.7718600000000002
  4.9969900000000003  0.0461727000000000  5.7717099999999997
  5.9034000000000004  7.6606600000000000  6.0304700000000002
  0.5134360000000000  3.6613500000000001 23.1494999999999997
  9.7306100000000004  3.9265099999999999 23.1780000000000008
  0.5663210000000000  3.3420500000000000 22.2174000000000014
  7.8991499999999997  1.9879500000000001 28.3348000000000013
  0.7210190000000000  3.6695300000000000  6.8591800000000003
  1.0762100000000001  3.9134699999999998  7.7787600000000001
  7.8856900000000003  2.6994500000000001  0.4792460000000000
  7.3379700000000003  3.0256699999999999 29.9228999999999985
  7.3484600000000002  3.9407700000000001 30.2243999999999993
  8.8858999999999995  1.7270000000000001 26.6146999999999991
  8.0357000000000003  5.7347200000000003 29.4500999999999991
  7.1749299999999998  5.4112799999999996 29.0548999999999999
  7.8537999999999997  6.5808400000000002 -0.2890500000000000
  7.3015200000000000  8.7594499999999993  0.4841200000000000
  8.1322700000000001  0.4912150000000000  0.7409960000000000
  7.8554199999999996  1.3042600000000000  7.2332000000000001
  7.2944599999999999  2.1221500000000000  6.9652399999999997
  5.8578000000000001  0.3869940000000000 23.7450000000000010
  6.2985600000000002  1.2987500000000001 23.6026999999999987
  3.7323800000000000  6.4425999999999997  6.2267500000000000
  6.6737700000000002  1.2535300000000000 22.7449000000000012
  3.0186600000000001  6.9500200000000003  6.6625399999999999
  7.2869700000000002  0.5235690000000000  7.1776200000000001
  2.9969100000000002  7.7617300000000000  6.0284100000000000
  0.6171920000000000  7.6581200000000003  7.5984299999999996
 -0.0048727300000000  7.2009800000000004  6.9550999999999998
  1.4458100000000000  7.0706300000000004  7.5717100000000004
  3.0740500000000002  0.3869540000000000  2.3826800000000001
  3.7029999999999998  8.4955900000000000  2.6488499999999999
  5.3636600000000003  3.9511500000000002 27.6916000000000011
  5.9759599999999997  4.7517500000000004 27.6109000000000009
  2.2560699999999998  6.5665899999999997  4.9758100000000001
  2.4337599999999999  6.7009800000000004  4.0142400000000000
  3.6463399999999999  0.9498370000000000  1.8725900000000000
  2.4782299999999999  5.8033700000000001  3.6398899999999998
  1.0480499999999999  4.9772299999999996  1.3922200000000000
  1.4478500000000001  5.7693599999999998  0.9600600000000000
  1.7739900000000000  4.4265999999999996  1.7417899999999999
  9.4271200000000004  1.1702800000000000  6.6104599999999998
  0.2035580000000000  1.1120600000000000  6.3092499999999996
  4.5600300000000002  2.8599700000000001 25.6802999999999990
  0.4727930000000000  0.3791730000000000  6.8411999999999997
  4.3276100000000000  2.7049400000000001 26.6476000000000006
  4.6199500000000002  1.7296700000000000 26.7645000000000017
  1.3529100000000001  1.7664599999999999 23.2930999999999990
  9.3052399999999995  5.8844700000000003  6.1045499999999997
  9.6726299999999998  5.0923100000000003  6.6093700000000002
  8.3868899999999993  5.7475500000000004  6.4664999999999999
  4.5748100000000003  6.4570400000000001 29.3813999999999993
  4.7397299999999998  6.0945499999999999  0.0930418000000000
  7.2313900000000002  2.3595799999999998  3.1465000000000001
  6.9126200000000004  3.2942100000000001  3.3417500000000002
  3.1448299999999998  0.6950470000000000  4.2065700000000001
  7.6287599999999998  3.9068999999999998  3.4902600000000001
  3.2045699999999999  0.3546370000000000  5.1237800000000000
  4.7723899999999997  5.8548099999999996 28.7077999999999989
  3.0438200000000002  1.1597500000000001  5.6221699999999997
  5.4723600000000001  4.9642700000000000  1.8556400000000000
  5.9849600000000001  4.2890400000000000  2.2748100000000000
  5.5672100000000002  5.7968400000000004  2.4117099999999998
  1.9043800000000000  6.0348199999999999 25.6498999999999988
  5.4885799999999998  5.3906200000000002 27.0662999999999982
 -0.1163110000000000  8.1062999999999992 27.9497000000000000
  0.0497333000000000  8.6113499999999998 28.7540000000000013
  8.3368500000000001  0.7610430000000000 24.0257000000000005
  0.5486540000000000  8.0430299999999999 29.4160000000000004
  9.0436300000000003  0.1041500000000000 24.1569000000000003
  1.1379300000000001  6.5896299999999997 25.9147999999999996
  9.2241800000000005  8.3623100000000008 23.3081999999999994
  2.0148799999999998  1.6581699999999999 29.2260999999999989
  1.5997500000000000  0.9941800000000000 28.6751000000000005
  1.3604799999999999  2.4176799999999998 29.1641000000000012
  1.0657399999999999  2.9151400000000001 26.3570999999999991
  0.3176680000000000  0.2392010000000000  4.2538200000000002
  0.0480247000000000  8.3754600000000003  3.5472800000000002
  5.5191200000000000  3.0087000000000002 23.3414999999999999
  0.7252530000000000  7.6846500000000004  3.6156999999999999
  5.1019500000000004  3.8601000000000001 23.3901000000000003
  4.6587300000000003  4.0032199999999998 22.5216999999999992
  1.6293400000000000  1.0177600000000000 22.7042000000000002
  1.8293400000000000  0.4376100000000000 23.4270999999999994
  1.6166100000000001  5.1994600000000002 26.0683000000000007
  1.7454600000000000  6.8155700000000001 23.2549999999999990
  1.9440200000000001  6.3022400000000003 22.4427999999999983
  1.9374199999999999  6.3495499999999998 24.1187000000000005
  8.4103300000000001  5.6983699999999997  3.0523300000000000
  9.3211999999999993  5.5088100000000004  2.7656000000000001
  8.4478600000000004  6.1510499999999997  3.9213000000000000
  3.2802799999999999  3.1193599999999999  5.4168900000000004
  3.0540500000000002  3.3463500000000002  4.4730999999999996
  2.5524600000000000  3.5451199999999998  5.8929799999999997
  7.5225000000000000  5.3477699999999997 23.6572999999999993
  7.6062799999999999  5.4031300000000000 24.6266999999999996
  6.6806299999999998  4.8657399999999997 23.4882999999999988
  5.8475500000000000  5.9968700000000004  6.7827400000000004
  6.1693600000000002  5.0378900000000000  6.5612899999999996
  5.5616700000000003  5.8867799999999999  7.6794900000000004
