Cu O  H  O  H  O  H  O  H  O  H  O  H  O  H  O  H  O  H  O  H  O  H  O  H  O  H  O  H  O  H  O  H  O  H  O  H  O  H  O  H  O  H  O  H  O  H  O  H  O  H  O  H  O  H  O  H  O  H  O  H  O  H  O  H  O  H  O  H  O  H  O  H  O  H  O  H  O  H  O  H  O  H  O  H  O  H  O  H  O  H  O  H  O  H  O  H  O  H  O  H 
 1.0000000000000000
    10.1403771778044529    0.0000000000000000    0.0000000000000000
     0.0000000000000000    8.7818242399346058    0.0000000000000000
     0.0000000000000000    0.0000000000000000   30.1311271579000000
 Cu  O   H   O   H   O   H   O   H   O   H   O   H   O   H   O   H   O   H   O   H   O   H   O   H   O   H   O   H   O   H   O   H   O   H   O   H   O   H   O   H   O   H   O   H   O   H   O   H   O   H   O   H   O   H   O   H   O   H   O   H   O   H   O   H   O   H   O   H   O   H   O   H   O   H   O   H   O   H   O   H   O   H   O   H   O   H   O   H   O   H   O   H   O   H   O   H   O   H   O   H  
  96   1   2   1   2   1   2   1   2   1   2   1   2   1   2   1   2   1   2   1   2   1   2   1   2   1   2   1   2   1   2   1   1   1   2   1   2   1   3   1   2   1   2   1   2   1   1   1   2   1   2   1   2   1   2   1   2   1   1   1   2   1   3   1   2   1   2   1   2   1   2   1   2   1   2   1   2   1   2   1   2   1   2   1   4   1   2   1   1   1   2   1   2   1   2   1   2   1   2   1   2
Cartesian
  7.2190000000000003  1.0141899999999999  9.8503000000000007
  9.6752300000000009  1.1144300000000000  9.9694099999999999
  1.9857100000000001  1.2094000000000000  9.9151600000000002
  4.4294300000000000  0.9999030000000000  9.8391999999999999
  8.4516299999999998  3.3273400000000000  9.9158299999999997
  0.6969600000000000  3.4255100000000001  9.8179800000000004
  3.2935599999999998  3.2333699999999999 10.0304000000000002
  5.8793400000000000  3.2483100000000000  9.9134700000000002
  9.4556900000000006  5.4032900000000001  9.8795699999999993
  1.9288700000000001  5.4455900000000002  9.8813899999999997
  4.4760499999999999  5.3789400000000001  9.8230599999999999
  6.8712700000000000  5.6122899999999998  9.9164800000000000
  0.6495130000000000  7.5810599999999999  9.8284800000000008
  3.2692600000000001  7.7029899999999998  9.9437999999999995
  5.8848099999999999  7.6417900000000003  9.8279899999999998
  8.3025000000000002  7.7246499999999996  9.8390500000000003
  5.8112599999999999  1.7317800000000001 12.0007999999999999
  8.3655100000000004  1.8608400000000000 11.8656000000000006
  0.7268330000000000  1.8797200000000001 11.9437999999999995
  3.3464200000000002  1.8677800000000000 11.9636999999999993
  7.1227600000000004  4.0700500000000002 11.8925999999999998
  9.5707199999999997  4.0607300000000004 11.9992000000000001
  1.9230900000000000  4.0455199999999998 11.9850999999999992
  4.6073800000000000  3.9598000000000000 11.9003999999999994
  8.3167200000000001  6.1575899999999999 11.9155999999999995
  0.6933330000000000  6.2429899999999998 11.9433000000000007
  3.2591800000000002  6.1700600000000003 12.0356000000000005
  5.7094899999999997  6.1468999999999996 11.9990000000000006
  9.5912799999999994  8.4150899999999993 11.9078999999999997
  1.9582999999999999  8.5368899999999996 11.9504000000000001
  4.6012000000000004  8.3772400000000005 11.9190000000000005
  7.0875000000000004  8.4574999999999996 11.8689000000000000
  5.7039600000000004  0.3659090000000000 14.0305999999999997
  8.2390600000000003  0.3659090000000000 14.0305999999999997
  0.6337739999999999  0.3659090000000000 14.0305999999999997
  3.1688700000000001  0.3659090000000000 14.0305999999999997
  6.9715100000000003  2.5613700000000001 14.0305999999999997
  9.5066000000000006  2.5613700000000001 14.0305999999999997
  1.9013199999999999  2.5613700000000001 14.0305999999999997
  4.4364200000000000  2.5613700000000001 14.0305999999999997
  8.2390600000000003  4.7568200000000003 14.0305999999999997
  0.6337739999999999  4.7568200000000003 14.0305999999999997
  3.1688700000000001  4.7568200000000003 14.0305999999999997
  5.7039600000000004  4.7568200000000003 14.0305999999999997
  9.5066000000000006  6.9522800000000000 14.0305999999999997
  1.9013199999999999  6.9522800000000000 14.0305999999999997
  4.4364200000000000  6.9522800000000000 14.0305999999999997
  6.9715100000000003  6.9522800000000000 14.0305999999999997
  6.9715100000000003  1.0977300000000001 16.1005000000000003
  9.5066000000000006  1.0977300000000001 16.1005000000000003
  1.9013199999999999  1.0977300000000001 16.1005000000000003
  4.4364200000000000  1.0977300000000001 16.1005000000000003
  8.2390600000000003  3.2931800000000000 16.1005000000000003
  0.6337739999999999  3.2931800000000000 16.1005000000000003
  3.1688700000000001  3.2931800000000000 16.1005000000000003
  5.7039600000000004  3.2931800000000000 16.1005000000000003
  9.5066000000000006  5.4886400000000002 16.1005000000000003
  1.9013199999999999  5.4886400000000002 16.1005000000000003
  4.4364200000000000  5.4886400000000002 16.1005000000000003
  6.9715100000000003  5.4886400000000002 16.1005000000000003
  0.6337739999999999  7.6840999999999999 16.1005000000000003
  3.1688700000000001  7.6840999999999999 16.1005000000000003
  5.7039600000000004  7.6840999999999999 16.1005000000000003
  8.2390600000000003  7.6840999999999999 16.1005000000000003
  5.7257699999999998  1.8489599999999999 18.2711000000000006
  8.1504899999999996  1.7847800000000000 18.1845999999999997
  0.6022530000000000  1.8616900000000001 18.0703999999999994
  3.1331500000000001  1.6439600000000001 18.1157000000000004
  6.9482200000000001  4.0083700000000002 18.1987999999999985
  9.4477899999999995  4.0119199999999999 18.0644999999999989
  1.8137000000000001  4.1631900000000002 18.0979999999999990
  4.3227099999999998  3.8582999999999998 18.0807000000000002
  8.0932700000000004  6.3246700000000002 18.1110000000000007
  0.4877560000000000  6.2741600000000002 18.1009999999999991
  3.1966500000000000  6.3007400000000002 18.0994999999999990
  5.6740599999999999  6.3201900000000002 18.1601999999999997
  9.4061299999999992  8.4133099999999992 18.1692999999999998
  1.8062100000000001  8.4016099999999998 18.2727000000000004
  4.5086599999999999  8.5864300000000000 18.1887000000000008
  6.9037100000000002  8.4922100000000000 18.1856000000000009
  5.7791600000000001  0.4603860000000000 20.3672000000000004
  8.3322299999999991  0.3866150000000000 20.3590000000000018
  0.5658990000000000  0.3695340000000000 20.2214999999999989
  3.0666600000000002  0.2745030000000000 20.2376000000000005
  7.0510599999999997  2.7022100000000000 20.2809999999999988
  9.6004900000000006  2.6145299999999998 20.2002999999999986
  1.9008100000000001  2.6583899999999998 20.1235999999999997
  4.3431800000000003  2.6006800000000001 20.2493000000000016
  8.2859200000000008  4.9030100000000001 20.1497999999999990
  0.5952780000000000  4.7720200000000004 20.0691999999999986
  3.1590400000000001  4.8085800000000001 20.1932000000000009
  5.6837299999999997  4.7952899999999996 20.1973999999999982
  9.4956700000000005  7.0140599999999997 20.3106000000000009
  1.7647699999999999  6.9434899999999997 20.2099000000000011
  4.2774500000000000  7.0377299999999998 20.1606999999999985
  7.0412200000000000  7.0409699999999997 20.2514000000000003
  4.0982799999999999  8.6369299999999996  5.1199899999999996
  4.2785000000000002  0.5290840000000000  4.4462599999999997
  3.4016899999999999  8.0599900000000009  4.6440799999999998
  3.1810600000000000  7.6296400000000002  1.1303399999999999
  3.2133099999999999  8.5547599999999999  0.8858110000000000
  2.3481999999999998  7.6188200000000004  1.6018399999999999
  9.6140200000000000  7.3295300000000001 25.9764000000000017
  5.7437500000000004  5.2707100000000002  1.2021999999999999
  8.8961299999999994  7.7943600000000002 25.5245999999999995
  9.0695399999999999  4.2865200000000003 23.2631000000000014
  8.3531300000000002  3.9081700000000001 22.7143000000000015
  9.3055299999999992  5.1088800000000001 22.8492999999999995
  4.2364800000000002  7.2643500000000003 25.2679000000000009
  4.3897399999999998  6.5174500000000002 24.7041000000000004
  5.0518999999999998  7.6291000000000002 25.5195000000000007
  8.0204900000000006  0.6671820000000001 24.8195000000000014
  6.1901000000000002  2.3513099999999998 25.7186999999999983
  8.9257500000000007  0.5653190000000000 24.4680999999999997
 10.1975999999999996  5.5683199999999999 27.8140999999999998
  7.1012300000000002  0.3154410000000000  1.4666300000000001
  9.6849100000000004  5.8232699999999999 28.6194999999999986
  6.9867999999999997  2.5443300000000000 26.2722000000000016
  3.7517700000000000  4.9311100000000003  2.7607599999999999
  7.1385500000000004  3.5332599999999998 26.1595000000000013
  6.7021899999999999  5.1253000000000002 25.6799999999999997
  7.0715300000000001  5.4664999999999999 24.8698000000000015
  1.0028100000000000  3.3690899999999999 25.8662999999999990
  1.0564899999999999  3.3023300000000000 26.8418999999999990
  0.9259060000000000  4.2065900000000003 27.1269999999999989
  9.7182800000000000  1.1131300000000000  4.0033099999999999
  3.0640100000000001  4.6842499999999996  3.4235799999999998
  3.3883899999999998  3.8355100000000002  3.8405600000000000
  1.5595699999999999  0.1117390000000000 27.6582000000000008
  5.9371900000000002  0.1489500000000000 22.6192999999999991
  5.1371399999999996  0.5624220000000000 22.9878999999999998
  6.6309600000000000  0.7438800000000000 22.9833999999999996
  6.8456000000000001  0.4727700000000000  2.3421599999999998
  8.0507100000000005  1.4785100000000000 25.2988000000000000
  7.2800900000000004  1.2013499999999999  2.7723700000000000
  7.1094799999999996  2.2673500000000000 29.0061999999999998
  6.2458400000000003  2.1837499999999999 29.3860999999999990
  6.9903100000000000  2.5513900000000000 28.0936999999999983
  5.5128700000000004  5.8666200000000002  1.9197500000000001
  9.8335899999999992  6.1481100000000000 27.0943000000000005
  4.8197700000000001  6.4057599999999999  1.6100200000000000
  7.7941200000000004  3.9200900000000001  0.8159440000000000
  8.4739900000000006  4.5488600000000003  0.6193210000000000
  0.9168030000000000  2.2118199999999999  0.8791730000000000
  0.1282120000000000  1.6694100000000001  0.6104980000000000
  0.6513360000000000  2.5116299999999998  1.7853900000000000
  4.3763100000000001  2.3947600000000002  3.1810800000000001
  4.1497599999999997  2.1014200000000001  2.2290299999999998
  5.3267499999999997  2.5009700000000001  3.2202199999999999
  5.8066500000000003  8.5187700000000000 27.1341000000000001
  6.2965700000000000  7.7427900000000003 27.5383999999999993
  6.4963400000000000  0.2556800000000000 26.6985999999999990
  7.6944200000000000  3.3236800000000000 30.1726999999999990
  9.6399699999999999  0.1807520000000000  4.0039999999999996
  9.6279299999999992 -0.1249160000000000  4.9459600000000004
  2.9418600000000001  7.0598900000000002 26.8806000000000012
  2.3629199999999999  7.1485099999999999 27.6975000000000016
  1.7126100000000000  6.4117699999999997 27.6353000000000009
  6.8599899999999998  5.6045800000000003 26.4782000000000011
  4.3637699999999997  5.5094300000000000 29.4216000000000015
  3.7989799999999998  5.1158200000000003 28.7626999999999988
  3.9012600000000002  6.3261300000000000 29.7291999999999987
  0.7907459999999999  0.6475190000000000 27.3669000000000011
  0.9930790000000000  1.5804499999999999 27.2567999999999984
  4.6958299999999999  4.7066900000000000  6.8434499999999998
  5.0373099999999997  5.2278700000000002  7.6361800000000004
  2.6844999999999999  4.0249300000000003 23.8321000000000005
  3.3887399999999999  4.7099299999999999 23.6158999999999999
 10.1250999999999998  8.0682799999999997  7.4273600000000002
  3.6884899999999998  4.5915499999999998 22.6919000000000004
 10.1510999999999996  7.6891299999999996  6.5456700000000003
  3.6940800000000000  4.8362100000000003  6.9365300000000003
  0.9299950000000000  7.7843700000000000  6.1773800000000003
  7.4510100000000001  5.3471799999999998  5.9465899999999996
  7.6657200000000003  5.5828499999999996  5.0272500000000004
  6.5053700000000001  5.3049200000000001  6.0670700000000002
  1.1239800000000000  2.8145799999999999  5.9672499999999999
  0.2768920000000000  2.7322299999999999  6.5407999999999999
  7.4224300000000003  6.0803200000000004 28.9475000000000016
  6.6782599999999999  6.2560700000000002 28.3104000000000013
  6.7887599999999999  6.4220300000000003  2.9414600000000002
  7.4942599999999997  6.7635699999999996  3.5063499999999999
  1.8706499999999999  2.2986599999999999  6.4971100000000002
  7.3739100000000004  7.7081700000000000  3.3773300000000002
  9.0880200000000002  0.5693230000000000 29.7148000000000003
  8.2830499999999994  1.0474399999999999 29.3061000000000007
  9.6317699999999995  0.4008300000000000 28.9344000000000001
  6.5429100000000000  7.5438999999999998  7.3528300000000000
  5.9739100000000001  8.2883099999999992  7.2062400000000002
  3.9885199999999998  4.1071999999999997 26.4529999999999994
  5.5594400000000004  7.7470999999999997  6.3509300000000000
  3.6596000000000002  3.6763400000000002 27.2796999999999983
  2.6973199999999999  3.4955699999999998 27.1518000000000015
  0.4160000000000000  8.2815499999999993 23.5705999999999989
  2.1880000000000002  5.1672799999999999  6.5655799999999997
  1.5669599999999999  5.5989300000000002  7.2231300000000003
  1.7724299999999999  4.3049499999999998  6.3353900000000003
  2.1837700000000000  7.2520499999999997  4.1736100000000000
  2.6777299999999999  6.3920000000000003  4.2853199999999996
  8.7619000000000007  7.5892600000000003 29.8453000000000017
  8.9086099999999995  6.6004399999999999 29.9873000000000012
  5.5231399999999997  1.3635500000000000  7.1198899999999998
  9.5655599999999996  6.5256699999999999  0.5350440000000000
  5.9396399999999998  2.2420399999999998  7.2658199999999997
  1.4593200000000000  6.9036099999999996  3.5927400000000000
  5.2637400000000003  2.9879199999999999  7.2278900000000004
  0.0859982000000000  5.9053000000000004  2.3458000000000001
  0.3978470000000000  5.0887500000000001  2.7436500000000001
  9.4047199999999993  6.1739400000000000  2.7236600000000002
  4.5328900000000001  1.4502600000000001 28.7447000000000017
  5.8502700000000001  5.8081600000000000 28.6903000000000006
  4.6167199999999999  3.8177099999999999 24.2057000000000002
  5.0169400000000000  2.9214699999999998 24.5058000000000007
  3.6615300000000000  8.7418999999999993 24.0195000000000007
  4.2346599999999999  2.3557199999999998 24.3414999999999999
  3.3083399999999998  0.8397680000000000 23.6848999999999990
  4.9419300000000002  0.7434950000000000 28.1236999999999995
  2.5358200000000002  0.6145130000000000 23.1934000000000005
  3.4078400000000002  1.7891300000000001  1.0049800000000000
  2.4592000000000001  2.0224199999999999  0.8830060000000000
  3.7300800000000001  1.5324800000000001  0.1523870000000000
 10.1228999999999996  8.1340699999999995 26.3192999999999984
  0.5500060000000000  2.9923700000000002  4.2361199999999997
  0.0877239000000000  3.1861199999999998  3.3666800000000001
  1.4015000000000000  2.2936000000000001 23.8136000000000010
  9.2602300000000000  3.0725199999999999  3.5986600000000002
  1.1975700000000000  3.1436199999999999 24.2029999999999994
  0.3729100000000000  3.4778300000000000 23.7503999999999991
  0.1375330000000000  0.4684260000000000 23.5250999999999983
 10.3317999999999994  0.6744840000000000 22.5522999999999989
  4.4184200000000002  2.2721200000000001 28.2231999999999985
  1.5872700000000000  6.7940899999999997 23.1674000000000007
  0.9605050000000001  6.6940900000000001 22.4356000000000009
  2.2991999999999999  6.1806500000000000 23.0662999999999982
  3.1668400000000001  1.3080099999999999  7.1426900000000000
  3.5395799999999999  0.8351780000000000  6.2874600000000003
  3.1846800000000002  0.7129120000000000  7.8877800000000002
  7.4455799999999996  2.9628899999999998  4.0654800000000000
  7.4951800000000004  2.9310600000000000  5.0525700000000002
  7.4486699999999999  3.9233400000000000  3.8386100000000001
  6.6326999999999998  6.1280200000000002 23.1663999999999994
  6.2798299999999996  7.0120199999999997 23.0490999999999993
  7.0950499999999996  6.0653499999999996 22.3403999999999989
  8.5107800000000005  2.9074300000000002  6.7058900000000001
  8.4488099999999999  3.8521700000000001  6.5331000000000001
  7.7021100000000002  2.7079800000000001  7.2344999999999997
