Cu  O  H  O  H  O  H  O  H  O  H  O  H  O  H  O  H  O  H  O  H  O  H  O  H  O  H  O  H  O  H  O  H  O  H  O  H  O  H  O  H  O  H  O  H  O  H  O  H  O  H  O  H  O  H  O  H  O  H  O  H  O  H  O  H  O  H  O  H  O  H  O  H  O  H  O  H  O  H  O  H  O  H  O  H  O  H  O  H  O  H  O  H  O  H  O  H  O  H  O  H 
 1.0000000000000000
    10.1403771778044529    0.0000000000000000    0.0000000000000000
     0.0000000000000000    8.7818242399346058    0.0000000000000000
     0.0000000000000000    0.0000000000000000   30.1311271579000000
 Cu  O   H   O   H   O   H   O   H   O   H   O   H   O   H   O   H   O   H   O   H   O   H   O   H   O   H   O   H   O   H   O   H   O   H   O   H   O   H   O   H   O   H   O   H   O   H   O   H   O   H   O   H   O   H   O   H   O   H   O   H   O   H   O   H   O   H   O   H   O   H   O   H   O   H   O   H   O   H   O   H   O   H   O   H   O   H   O   H   O   H   O   H   O   H   O   H   O   H   O   H  
  96   1   2   1   2   1   2   1   2   1   2   1   2   1   2   1   2   1   2   1   2   1   2   1   2   1   2   1   2   1   2   1   1   1   2   1   2   1   3   1   2   1   2   1   2   1   1   1   2   1   2   1   2   1   2   1   2   1   1   1   2   1   3   1   2   1   2   1   2   1   2   1   2   1   2   1   2   1   2   1   2   1   2   1   4   1   2   1   1   1   2   1   2   1   2   1   2   1   2   1   2
Cartesian
  6.8986299999999998  1.1276500000000000 10.0549999999999997
  9.5488300000000006  1.0776699999999999  9.8240700000000007
  1.9914300000000000  1.0692900000000001  9.8153100000000002
  4.5373999999999999  1.1555200000000001  9.8266200000000001
  8.2081900000000001  3.2180700000000000  9.6984499999999993
  0.7620000000000000  3.2399200000000001  9.8462700000000005
  3.2671100000000002  3.2727900000000001  9.8841699999999992
  5.7315899999999997  3.3060499999999999 10.0221999999999998
  9.6022099999999995  5.4187000000000003  9.8122199999999999
  1.9609700000000001  5.5334300000000001  9.6688600000000005
  4.5082199999999997  5.4932900000000000  9.7999500000000008
  6.9586100000000002  5.4916000000000000  9.7704299999999993
  0.6251989999999999  7.5500200000000000  9.8667899999999999
  3.2949999999999999  7.6233800000000000  9.9682899999999997
  5.7771200000000000  7.8201200000000002  9.8455200000000005
  8.2260500000000008  7.5696199999999996  9.8335000000000008
  5.6280099999999997  1.8474100000000000 12.0108999999999995
  8.2465399999999995  1.9043000000000001 11.8476999999999997
  0.6597740000000000  1.8098500000000000 11.8917999999999999
  3.2214499999999999  1.8437900000000000 11.9815000000000005
  7.0077699999999998  4.1280000000000001 11.8451000000000004
  9.5632099999999998  4.0233900000000000 11.8747000000000007
  1.9690300000000001  3.9924400000000002 11.9162999999999997
  4.5928800000000001  4.0394100000000002 11.9968000000000004
  8.2856699999999996  6.1779299999999999 11.8323000000000000
  0.6765340000000000  6.1844299999999999 11.9794999999999998
  3.1452200000000001  6.1379799999999998 11.9611999999999998
  5.7740600000000004  6.2437699999999996 11.8923000000000005
  9.5950299999999995  8.4979099999999992 11.9099000000000004
  1.9664900000000001  8.3856699999999993 11.9131000000000000
  4.5190500000000000  8.4490200000000009 11.9468999999999994
  7.0262700000000002  8.3271499999999996 12.0014000000000003
  5.7039600000000004  0.3659090000000000 14.0305999999999997
  8.2390600000000003  0.3659090000000000 14.0305999999999997
  0.6337739999999999  0.3659090000000000 14.0305999999999997
  3.1688700000000001  0.3659090000000000 14.0305999999999997
  6.9715100000000003  2.5613700000000001 14.0305999999999997
  9.5066000000000006  2.5613700000000001 14.0305999999999997
  1.9013199999999999  2.5613700000000001 14.0305999999999997
  4.4364200000000000  2.5613700000000001 14.0305999999999997
  8.2390600000000003  4.7568200000000003 14.0305999999999997
  0.6337739999999999  4.7568200000000003 14.0305999999999997
  3.1688700000000001  4.7568200000000003 14.0305999999999997
  5.7039600000000004  4.7568200000000003 14.0305999999999997
  9.5066000000000006  6.9522800000000000 14.0305999999999997
  1.9013199999999999  6.9522800000000000 14.0305999999999997
  4.4364200000000000  6.9522800000000000 14.0305999999999997
  6.9715100000000003  6.9522800000000000 14.0305999999999997
  6.9715100000000003  1.0977300000000001 16.1005000000000003
  9.5066000000000006  1.0977300000000001 16.1005000000000003
  1.9013199999999999  1.0977300000000001 16.1005000000000003
  4.4364200000000000  1.0977300000000001 16.1005000000000003
  8.2390600000000003  3.2931800000000000 16.1005000000000003
  0.6337739999999999  3.2931800000000000 16.1005000000000003
  3.1688700000000001  3.2931800000000000 16.1005000000000003
  5.7039600000000004  3.2931800000000000 16.1005000000000003
  9.5066000000000006  5.4886400000000002 16.1005000000000003
  1.9013199999999999  5.4886400000000002 16.1005000000000003
  4.4364200000000000  5.4886400000000002 16.1005000000000003
  6.9715100000000003  5.4886400000000002 16.1005000000000003
  0.6337739999999999  7.6840999999999999 16.1005000000000003
  3.1688700000000001  7.6840999999999999 16.1005000000000003
  5.7039600000000004  7.6840999999999999 16.1005000000000003
  8.2390600000000003  7.6840999999999999 16.1005000000000003
  5.6671199999999997  1.7885200000000001 18.1494000000000000
  8.1589500000000008  1.8405600000000000 18.1917000000000009
  0.5129240000000000  1.7906599999999999 18.1460000000000008
  3.2327300000000001  1.8326499999999999 18.2485999999999997
  6.8406099999999999  4.0116399999999999 18.0502000000000002
  9.3938400000000009  4.0029100000000000 18.2251000000000012
  1.9288900000000000  4.0949700000000000 18.1021000000000001
  4.4003699999999997  4.0273000000000003 18.1237999999999992
  8.1985399999999995  6.2271700000000001 18.2393999999999998
  0.6101550000000000  6.3144499999999999 18.0831000000000017
  3.0718000000000001  6.3233300000000003 18.1299999999999990
  5.5649300000000004  6.2233200000000002 18.1548000000000016
  9.4394399999999994  8.3581900000000005 18.1723999999999997
  1.8665099999999999  8.5081399999999991 18.1189999999999998
  4.3451500000000003  8.4378399999999996 18.2726000000000006
  6.9278899999999997  8.3942099999999993 18.1546999999999983
  5.7646899999999999  0.3089500000000000 20.2927999999999997
  8.2802399999999992  0.2730840000000000 20.2662000000000013
  0.5621750000000000  0.3320690000000000 20.1615000000000002
  3.1437800000000000  0.3000600000000000 20.1758999999999986
  7.0470499999999996  2.4613299999999998 20.2521999999999984
  9.5190999999999999  2.4433099999999999 20.2562999999999995
  1.8297800000000000  2.6358700000000002 20.0874999999999986
  4.3792900000000001  2.5557900000000000 20.1955999999999989
  8.1183099999999992  4.7221900000000003 20.0703999999999994
  0.5307520000000000  4.7285000000000004 20.0677999999999983
  3.2139000000000002  4.8369000000000000 20.1310000000000002
  5.6420700000000004  4.7360499999999996 20.1953999999999994
  9.5204799999999992  6.7925100000000000 20.2556000000000012
  1.7657099999999999  6.8664600000000000 20.0579999999999998
  4.3665700000000003  6.9167199999999998 20.3935999999999993
  6.9384899999999998  6.9395499999999997 20.2719999999999985
  4.5263799999999996  7.1923199999999996  5.4849600000000001
  5.0266400000000004  6.4801799999999998  5.0639599999999998
  3.8110400000000002  6.6229800000000001  5.9158999999999997
  3.0107599999999999  3.8501099999999999 29.7756000000000007
  3.0253700000000001  4.7282599999999997 29.3600999999999992
  2.0586799999999998  3.7269399999999999 29.9820999999999991
  1.3489599999999999  6.4447200000000002 24.2306999999999988
  3.6801100000000000  4.0919699999999999  4.2874900000000000
  0.7341370000000000  6.2291999999999996 23.5399999999999991
  0.4467870000000000  4.8476100000000004 26.5962999999999994
  0.7248950000000000  3.9766300000000001 26.2451000000000008
  0.7127080000000000  5.5371300000000003 25.9465000000000003
  5.1832599999999998  7.2116699999999998 26.8153000000000006
  4.6471299999999998  7.2998900000000004 25.9923000000000002
  5.7834800000000000  8.0043399999999991 26.7641999999999989
  8.4205100000000002  2.0350000000000001 25.1695999999999991
  8.9884000000000004  4.5050100000000004 29.7752000000000017
  9.3843499999999995  1.9358100000000000 25.3765999999999998
  1.5903900000000000  8.0093700000000005 27.7691000000000017
  6.6688000000000001  0.1832560000000000  2.4509300000000001
  1.1611300000000000  8.0684400000000007 26.8626000000000005
  9.3274299999999997  3.8830900000000002 29.0334000000000003
  1.9678100000000001  8.1132899999999992  3.6435200000000001
  9.6639400000000002  4.4129699999999996 28.3358999999999988
  8.0246399999999998  4.6655499999999996 26.0153999999999996
  8.8719800000000006  4.5471700000000004 26.5193000000000012
  3.3030499999999998  1.9835600000000000 27.2990999999999993
  2.3730400000000000  1.7517600000000000 27.6443000000000012
  2.2552300000000001  2.1400299999999999 28.5325999999999986
  9.8477599999999992  1.6188100000000001  4.1309500000000003
  2.4713099999999999  8.7624200000000005  4.0831400000000002
  3.2382599999999999  8.2882300000000004  4.3750799999999996
  1.3612700000000000  2.3368899999999999 24.8201000000000001
  6.5487200000000003  1.0992800000000000 23.3795000000000002
  6.5162500000000003  1.0758099999999999 22.3653000000000013
  7.3797199999999998  1.4835700000000001 23.6035000000000004
  7.0951899999999997  0.5160600000000000  3.3062399999999998
  8.2745099999999994  2.9829599999999998 25.3799999999999990
  6.3500600000000000  0.9442460000000000  3.8112699999999999
  7.5786199999999999  1.7502500000000001 29.2039000000000009
  7.4125600000000000  1.8856299999999999  0.0074195200000000
  8.0717400000000001  2.5566599999999999 28.8253999999999984
  2.8681000000000001  4.2533399999999997  3.7650199999999998
  1.9480500000000001  0.1114630000000000 27.7932999999999986
  2.1784400000000002  4.1882000000000001  4.4155499999999996
  6.8545299999999996  3.2699400000000001  1.3499500000000000
  6.2732000000000001  2.5752199999999998  1.5869100000000000
  0.6517740000000000  1.6761800000000000  0.4154800000000000
  0.2124620000000000  2.3214299999999999 29.9705000000000013
  0.3336860000000000  1.9920199999999999  1.2775500000000000
  5.7215699999999998  5.3562000000000003  3.8057099999999999
  5.9090100000000003  5.3140299999999998  2.8868700000000000
  6.5416800000000004  5.5979599999999996  4.1393100000000000
  6.7777900000000004  0.8106860000000000 26.7159000000000013
  6.9668299999999999  0.9401880000000000 27.7120999999999995
  7.5914500000000000  1.1635500000000001 26.2265000000000015
  6.2074999999999996  4.0228099999999998  1.2495799999999999
  9.4818899999999999  0.9743540000000001  4.8599300000000003
  0.0102162000000000  0.7757760000000000  5.4574999999999996
  4.0954699999999997  6.4420700000000002 28.6239999999999988
  3.3073399999999999  6.3052700000000002 29.1511999999999993
  2.6118100000000002  6.6974999999999998 28.6375999999999991
  7.2467600000000001  4.7027400000000004 26.6809000000000012
  5.9353800000000003  4.8862500000000004 27.6362999999999985
  5.7857599999999998  5.8300500000000000 27.3127999999999993
  5.2755900000000002  4.2480399999999996 27.2604000000000006
  0.8334380000000000  2.2048600000000000 25.5729000000000006
  1.3677100000000000  2.0466700000000002 26.3402999999999992
  5.5152299999999999  3.4274499999999999  6.8756199999999996
  4.9256399999999996  3.3120900000000000  7.6687300000000000
  4.6532600000000004  7.1209800000000003 23.7479000000000013
  4.3856299999999999  7.9777600000000000 24.2254000000000005
  9.8600899999999996  7.2129799999999999  7.6991199999999997
  5.2158199999999999  8.5151800000000009 24.1479999999999997
  9.9339600000000008  6.8351600000000001  6.8060200000000002
  6.2046099999999997  2.7573500000000002  6.8961499999999996
  0.7537790000000000  6.7247599999999998  6.6204700000000001
  6.9834600000000000  5.5378900000000000  7.5335500000000000
  6.8127500000000003  6.5393699999999999  7.5598099999999997
  6.2558900000000000  4.9916700000000001  7.3036300000000001
  1.0771400000000000  3.5049399999999999  5.9298099999999998
  0.4160210000000000  3.8211599999999999  6.5855300000000003
  6.9094899999999999  5.7303300000000004  0.3317790000000000
  5.9597400000000000  5.6650299999999998  0.3237340000000000
  8.5320999999999998  7.1540699999999999  5.5226199999999999
  7.8665900000000004  6.8995100000000003  4.9134900000000004
  1.4352300000000000  2.6136300000000001  6.1280200000000002
  7.7481999999999998  7.7694200000000002  4.5112600000000000
  8.9318299999999997  8.1494300000000006 28.7496000000000009
  8.4791699999999999  0.2050310000000000 29.0859999999999985
  9.8477800000000002  8.2081599999999995 28.4835999999999991
  6.5425800000000001  8.7811800000000009  7.2590700000000004
  6.1980000000000004  7.8845599999999996  7.4799300000000004
  3.4660299999999999  0.9855350000000000  1.4693000000000001
  5.4492200000000004  7.7765500000000003  6.8614899999999999
  4.1222200000000004  1.6625300000000001  1.6332700000000000
  3.8376199999999998  2.4144100000000002  1.0537099999999999
  5.4299900000000001  2.2490399999999999 23.8297999999999988
  2.7111100000000001  5.7984099999999996  6.6703099999999997
  3.0470600000000001  5.8708700000000000  7.5950699999999998
  2.2568999999999999  4.8872400000000003  6.5699100000000001
  1.6024700000000001  6.4656900000000004  2.7164000000000001
  2.3278599999999998  5.8442200000000000  3.0069900000000001
  8.5514899999999994  7.0159900000000004 30.0400999999999989
  8.5614799999999995  6.1114300000000004  0.3411850000000000
  6.6360400000000004  1.3536800000000000  5.6753799999999996
  8.7342200000000005  6.1913799999999997  1.2582400000000000
  7.3635299999999999  1.2229500000000000  6.2914599999999998
  1.8042400000000001  6.8186600000000004  1.8296900000000000
  8.1421799999999998  1.1524000000000001  5.7256400000000003
  9.2269299999999994  5.3874100000000000  3.0466799999999998
 10.1471999999999998  5.7588699999999999  2.9838499999999999
  8.7969899999999992  5.8275499999999996  3.8806300000000000
  6.2578300000000002  8.5928299999999993  0.9659270000000000
  5.7749100000000002  5.2031599999999996 29.6299999999999990
  5.2238499999999997  5.0842099999999997 22.9027999999999992
  5.6640300000000003  5.8825599999999998 23.2103000000000002
  5.4403499999999996  1.8729899999999999 26.7856999999999985
  6.1820199999999996  6.2202700000000002 22.4845000000000006
  4.6691200000000004  2.4235000000000002 26.5581999999999994
  6.0134900000000000  7.7234299999999996  0.7113780000000000
  4.5636000000000001  2.5067499999999998 25.5886999999999993
  2.4456300000000000  8.2860300000000002  0.7243490000000000
  1.7430000000000001  0.1331060000000000  0.4135880000000000
  2.7967200000000001  7.6887200000000000 30.1235999999999997
  1.7373300000000000  7.3052700000000002 24.0016999999999996
  9.5501799999999992  3.6239100000000000  2.8099900000000000
  9.7036200000000008  2.6395599999999999  2.7545500000000001
  1.5800799999999999  3.5196399999999999 22.5773000000000010
  8.8355700000000006  2.2484400000000000  2.6435000000000000
  2.2122299999999999  3.7827700000000002 23.2346000000000004
  2.0398800000000001  4.6392499999999997 23.7180000000000000
  4.7866200000000001  2.9732400000000001 23.9768000000000008
  3.8430100000000000  2.9178099999999998 23.6686000000000014
  5.4596799999999996  0.2703950000000000  1.1427900000000000
  1.7819900000000000  0.3137730000000000 23.5707999999999984
  2.6638500000000001  0.1276400000000000 23.2249000000000017
  1.4538000000000000  0.9172060000000000 22.8349000000000011
  2.0937000000000001  0.9177460000000000  6.5078800000000001
  2.1966299999999999  0.3958210000000000  5.6796400000000000
  2.0919900000000000  0.3904680000000000  7.3537200000000000
  5.2166100000000002  2.0776900000000000  4.3345900000000004
  4.6270100000000003  1.8563300000000000  3.5494900000000000
  5.4327100000000002  2.9967400000000000  4.2892099999999997
  9.4547699999999999  5.3357099999999997 22.9634000000000000
  8.9148499999999995  5.5777900000000002 22.1612000000000009
  8.8155800000000006  5.3714100000000000 23.7188000000000017
  8.6550200000000004  3.3621200000000000  7.5157699999999998
  8.1857699999999998  4.1789100000000001  7.2211699999999999
  8.2844899999999999  2.6332599999999999  7.0120500000000003
