Cu O  H  O  H  O  H  O  H  O  H  O  H  O  H  O  H  O  H  O  H  O  H  O  H  O  H  O  H  O  H  O  H  O  H  O  H  O  H  O  H  O  H  O  H  O  H  O  H  O  H  O  H  O  H  O  H  O  H  O  H  O  H  O  H  O  H  O  H  O  H  O  H  O  H  O  H  O  H  O  H  O  H  O  H  O  H  O  H  O  H  O  H  O  H  O  H  O  H  O  H 
 1.0000000000000000
    10.1403771778044529    0.0000000000000000    0.0000000000000000
     0.0000000000000000    8.7818242399346058    0.0000000000000000
     0.0000000000000000    0.0000000000000000   30.1311271579000000
 Cu  O   H   O   H   O   H   O   H   O   H   O   H   O   H   O   H   O   H   O   H   O   H   O   H   O   H   O   H   O   H   O   H   O   H   O   H   O   H   O   H   O   H   O   H   O   H   O   H   O   H   O   H   O   H   O   H   O   H   O   H   O   H   O   H   O   H   O   H   O   H   O   H   O   H   O   H   O   H   O   H   O   H   O   H   O   H   O   H   O   H   O   H   O   H   O   H   O   H   O   H  
  96   1   2   1   2   1   2   1   2   1   2   1   2   1   2   1   2   1   2   1   2   1   2   1   2   1   2   1   2   1   2   1   1   1   2   1   2   1   3   1   2   1   2   1   2   1   1   1   2   1   2   1   2   1   2   1   2   1   1   1   2   1   3   1   2   1   2   1   2   1   2   1   2   1   2   1   2   1   2   1   2   1   2   1   4   1   2   1   1   1   2   1   2   1   2   1   2   1   2   1   2
Cartesian
  6.9147499999999997  0.8491020000000000  9.9391200000000008
  9.4064499999999995  0.9500310000000000  9.9699899999999992
  1.9036999999999999  1.0998600000000001  9.7398600000000002
  4.3717300000000003  1.0187400000000000 10.0345999999999993
  8.1495300000000004  3.3656700000000002 10.0299999999999994
  0.6326760000000000  3.1082500000000000 10.0540000000000003
  3.1893600000000002  3.2600099999999999  9.9246400000000001
  5.7975099999999999  3.2336999999999998  9.8425600000000006
  9.4597099999999994  5.3766299999999996  9.8565699999999996
  1.8779600000000001  5.4541899999999996  9.9177999999999997
  4.4133800000000001  5.3924700000000003  9.8761500000000009
  6.9060600000000001  5.4001200000000003  9.8521800000000006
  0.5159150000000000  7.6570099999999996 10.0012000000000008
  3.1200600000000001  7.6862000000000004  9.7584900000000001
  5.6303500000000000  7.6521200000000000  9.9163300000000003
  8.2137700000000002  7.5619199999999998  9.8876600000000003
  5.6576399999999998  1.7686400000000000 12.0012000000000008
  8.0542599999999993  1.6223099999999999 11.9295000000000009
  0.4510770000000000  1.7672699999999999 12.0707000000000004
  3.0353200000000000  1.8385100000000001 11.9914000000000005
  7.0421300000000002  3.8740700000000001 12.0183999999999997
  9.5312900000000003  3.9903400000000002 11.9747000000000003
  1.8408599999999999  3.9819300000000002 11.9787999999999997
  4.5409400000000000  3.9207999999999998 11.8907000000000007
  8.2059300000000004  6.1169099999999998 11.9504999999999999
  0.6407090000000000  6.1499400000000000 11.8829999999999991
  3.3062600000000000  6.1424799999999999 11.9269999999999996
  5.7006399999999999  6.0812099999999996 11.8497000000000003
  9.3648500000000006  8.3076899999999991 12.0053000000000001
  1.9395800000000001  8.3985400000000006 11.9520999999999997
  4.3473699999999997  8.4483599999999992 11.9733999999999998
  6.8679300000000003  8.3484800000000003 12.0700000000000003
  5.7039600000000004  0.3659090000000000 14.0305999999999997
  8.2390600000000003  0.3659090000000000 14.0305999999999997
  0.6337739999999999  0.3659090000000000 14.0305999999999997
  3.1688700000000001  0.3659090000000000 14.0305999999999997
  6.9715100000000003  2.5613700000000001 14.0305999999999997
  9.5066000000000006  2.5613700000000001 14.0305999999999997
  1.9013199999999999  2.5613700000000001 14.0305999999999997
  4.4364200000000000  2.5613700000000001 14.0305999999999997
  8.2390600000000003  4.7568200000000003 14.0305999999999997
  0.6337739999999999  4.7568200000000003 14.0305999999999997
  3.1688700000000001  4.7568200000000003 14.0305999999999997
  5.7039600000000004  4.7568200000000003 14.0305999999999997
  9.5066000000000006  6.9522800000000000 14.0305999999999997
  1.9013199999999999  6.9522800000000000 14.0305999999999997
  4.4364200000000000  6.9522800000000000 14.0305999999999997
  6.9715100000000003  6.9522800000000000 14.0305999999999997
  6.9715100000000003  1.0977300000000001 16.1005000000000003
  9.5066000000000006  1.0977300000000001 16.1005000000000003
  1.9013199999999999  1.0977300000000001 16.1005000000000003
  4.4364200000000000  1.0977300000000001 16.1005000000000003
  8.2390600000000003  3.2931800000000000 16.1005000000000003
  0.6337739999999999  3.2931800000000000 16.1005000000000003
  3.1688700000000001  3.2931800000000000 16.1005000000000003
  5.7039600000000004  3.2931800000000000 16.1005000000000003
  9.5066000000000006  5.4886400000000002 16.1005000000000003
  1.9013199999999999  5.4886400000000002 16.1005000000000003
  4.4364200000000000  5.4886400000000002 16.1005000000000003
  6.9715100000000003  5.4886400000000002 16.1005000000000003
  0.6337739999999999  7.6840999999999999 16.1005000000000003
  3.1688700000000001  7.6840999999999999 16.1005000000000003
  5.7039600000000004  7.6840999999999999 16.1005000000000003
  8.2390600000000003  7.6840999999999999 16.1005000000000003
  5.7048800000000002  1.8396600000000001 18.2505999999999986
  8.3454400000000000  1.7577600000000000 18.1599000000000004
  0.7078100000000001  1.8741500000000000 18.2245999999999988
  3.2507899999999998  1.9941800000000001 18.0730000000000004
  6.9585600000000003  3.8624800000000001 18.3076000000000008
  9.3898100000000007  4.0376700000000003 18.3164000000000016
  1.8931100000000001  3.9962300000000002 18.1304000000000016
  4.3700999999999999  4.2516499999999997 18.1911999999999985
  8.2325800000000005  6.1912599999999998 18.1082999999999998
  0.7385820000000000  6.2767499999999998 18.1164999999999985
  3.2064900000000001  6.3372099999999998 18.1700000000000017
  5.7780300000000002  6.2167399999999997 18.2247999999999983
  9.5659100000000006  8.2521599999999999 18.2205000000000013
  1.9938700000000000  8.5402299999999993 18.1959000000000017
  4.4869500000000002  8.4662600000000001 18.1066000000000003
  6.8869199999999999  8.5557800000000004 18.1955999999999989
  5.7367499999999998  0.4294210000000000 20.4617000000000004
  8.3783700000000003  0.2536630000000000 20.1136000000000017
  0.7728220000000000  0.3662700000000000 20.3569999999999993
  3.1784100000000000  0.5140150000000000 20.0900999999999996
  7.1989400000000003  2.5507000000000000 20.3196000000000012
  9.5427800000000005  2.5131299999999999 20.1505000000000010
  2.0011600000000000  2.6471900000000002 20.1654000000000018
  4.5285099999999998  2.6964999999999999 20.2606000000000002
  8.3264099999999992  4.7466900000000001 20.2778999999999989
  0.6673260000000000  4.7432100000000004 20.0895000000000010
  3.2945400000000000  4.8955000000000002 20.2441999999999993
  5.7987900000000003  4.9054099999999998 20.5310999999999986
  9.6034400000000009  6.9881799999999998 20.1606999999999985
  1.8961699999999999  6.8316100000000004 20.1325000000000003
  4.4622000000000002  7.1094799999999996 20.1218000000000004
  7.0166599999999999  6.9530599999999998 20.1531999999999982
  2.7913000000000001  8.7629900000000003 23.1858000000000004
  3.7403599999999999  0.0871759000000000 23.4375000000000000
  2.8839800000000002  0.1762480000000000 22.2028999999999996
  8.0307200000000005  5.7567800000000000  1.2956500000000000
  8.0433199999999996  6.6352399999999996  1.6457599999999999
  8.9269499999999997  5.7610400000000004  0.8422290000000000
  9.5864399999999996  0.4069860000000000  0.1906370000000000
  1.2761100000000001  2.2482300000000000 24.1324000000000005
  9.8658699999999993  1.2943499999999999 -0.0669004000000000
  4.3876099999999996  1.5449500000000000  7.5831900000000001
  3.9491800000000001  2.3569300000000002  7.2650899999999998
  3.9812300000000000  0.8471150000000000  6.9829299999999996
  5.7930299999999999  6.5550300000000004 23.4547999999999988
  5.6752700000000003  6.2326499999999996 22.5407000000000011
  5.3495699999999999  5.9349900000000000 24.0519999999999996
  3.4187799999999999  1.9980000000000000  3.1030300000000000
  1.0743900000000000  5.7859900000000000  0.5596690000000000
  3.0251899999999998  2.6678700000000002  3.6896300000000002
  6.5733100000000002  0.6475950000000000  3.9246599999999998
  9.2552599999999998  2.4612500000000002  7.7844899999999999
  5.6595100000000000  0.9960680000000000  3.8946299999999998
  0.4151380000000000  5.3396999999999997  0.0135774000000000
  1.0225599999999999  4.0393900000000000  4.4149799999999999
  0.5171540000000000  5.9211000000000000 29.3573999999999984
  2.5635300000000001  6.4942700000000002  1.1561900000000001
  2.7463299999999999  6.4518500000000003  2.1318100000000002
  8.0648199999999992  1.4623999999999999  3.9093599999999999
  8.8015899999999991  2.1394400000000000  4.0504600000000002
  9.5739800000000006  1.5444899999999999  3.8368600000000002
  6.0682600000000004  1.3626700000000000  7.5284800000000001
  1.9820300000000000  3.8650099999999998  4.4787800000000004
  2.2835999999999999  4.7673899999999998  4.2191000000000001
  4.6180599999999998  7.3656499999999996  5.8935500000000003
  4.7617900000000004  0.7775250000000000 27.8811999999999998
  3.7416100000000001  0.8417600000000000 27.8000000000000007
  5.0811200000000003  1.6544000000000001 27.7567999999999984
  9.0391899999999996  2.8757999999999999  6.9562799999999996
  3.1372599999999999  2.2551999999999999  2.1899700000000002
  9.0495199999999993  2.3341200000000000  6.1368999999999998
  6.2988900000000001  3.1187700000000000 28.1541999999999994
  6.9644500000000003  2.8411200000000001 27.5450000000000017
  6.4455099999999996  4.0405600000000002 28.4623999999999988
  0.4273940000000000  2.2633200000000002 24.6198000000000015
  6.5872400000000004  8.6980699999999995  4.5049299999999999
 10.1466999999999992  3.0894599999999999 24.2838999999999992
  4.1722000000000001  8.4291099999999997  0.1909150000000000
  3.7842300000000000  0.4366820000000000  0.5909219999999999
  4.8699700000000004  4.2438599999999997 24.5658999999999992
  5.5671799999999996  3.5244599999999999 24.3873999999999995
  4.0513399999999997  3.8932300000000000 24.2897999999999996
  0.6048519999999999  3.7511899999999998 26.9200000000000017
  0.7412780000000000  3.1741000000000001 26.1396000000000015
  1.4981899999999999  4.1609999999999996 27.1069999999999993
  2.0460199999999999  4.0737100000000002 23.4354000000000013
  1.8571100000000000  5.0455100000000002 23.6095000000000006
  2.1722199999999998  3.9694799999999999 22.4660000000000011
  4.4520299999999997  8.6994299999999996 29.4151999999999987
  6.9884300000000001  1.1090700000000000  7.8840700000000004
  7.4939700000000000  1.8792500000000001  7.4656900000000004
  9.4219000000000008  5.9147400000000001  3.6915300000000002
  9.6897199999999994  5.2607799999999996  4.3699399999999997
  9.2746700000000004  4.3845700000000001  4.0818300000000001
  3.0270000000000001  7.2909199999999998  0.8231140000000000
  6.6870000000000003  5.7403899999999997 29.0198999999999998
  7.1444400000000003  6.2616399999999999 28.2776999999999994
  7.1202300000000003  5.8027400000000000 29.8699000000000012
  3.8644200000000000  8.0029800000000009  5.8568899999999999
  3.1145900000000002  7.7688699999999997  6.3852500000000001
  5.7147399999999999  0.4327140000000000 22.6406999999999989
  5.9631400000000001  8.4881300000000000 23.2695000000000007
 -0.0574216000000000  0.8643630000000000 24.8835000000000015
  9.5903100000000006  0.1371720000000000 25.4695999999999998
  7.3003999999999998  7.1465699999999996  6.0398800000000001
  9.1591000000000005  8.2997899999999998 24.8856000000000002
  6.3922499999999998  7.1777199999999999  5.5806300000000002
  6.1115399999999998  1.2450500000000000 22.9864999999999995
  6.4531499999999999  6.4684600000000003  4.8811600000000004
  7.3711700000000002  6.9159300000000004 26.7962999999999987
  6.6572800000000001  6.8634300000000001 26.1647999999999996
  8.1778200000000005  6.8751199999999999 26.2803000000000004
  6.9208200000000000  8.5938400000000001  1.0991100000000000
  6.0150899999999998  8.7308400000000006  0.8919090000000000
  2.3389500000000001  2.3018700000000001  0.0674970000000000
  3.2943799999999999  2.3940199999999998  0.4007130000000000
  2.2619500000000001  0.5719830000000000  3.6981799999999998
  1.3320099999999999  0.2135840000000000  3.7158600000000002
  6.8784799999999997  8.7886299999999995  2.0441300000000000
  1.3392900000000001 -0.1481870000000000  4.6759500000000003
  8.9320900000000005  4.2514500000000002 23.6414000000000009
  9.2870899999999992  4.1304299999999996 22.7476999999999983
  9.4098000000000006  4.9619200000000001 24.1726999999999990
  5.7386699999999999  4.7104600000000003  5.0534299999999996
  5.6080800000000002  5.0680300000000003  4.1451700000000002
 10.0142000000000007  5.0591400000000002 26.2874000000000017
  6.0582599999999998  4.4186899999999998  3.5707800000000001
  9.7147600000000001  6.0237800000000004 25.9863000000000000
  0.3497110000000000  6.2891300000000001 25.4635999999999996
  8.2226099999999995  0.7666630000000000 25.9956999999999994
  8.7335200000000004  7.2737699999999998 23.3366000000000007
  7.9855000000000000  6.6780400000000002 23.2813000000000017
  8.9372000000000007  7.4661499999999998 22.3888999999999996
  0.7068310000000000  2.7738900000000002 29.5350000000000001
  0.4338020000000000  3.6569900000000000 29.8050999999999995
  2.2666800000000000  4.1538599999999999  7.5587600000000004
  2.8669500000000001  3.5641600000000002  6.9298799999999998
  2.9909800000000000  7.0506399999999996  4.3739999999999997
  2.4320900000000001  3.6779899999999999  6.0771300000000004
  3.1443800000000000  6.3280799999999999  3.7656399999999999
  0.6023360000000000  2.7460300000000002 28.5802000000000014
  4.0719700000000003  5.9714700000000001  3.8086899999999999
  1.7512900000000000  6.5447300000000004 24.3989000000000011
  2.5440299999999998  6.9696300000000004 24.8137000000000008
  1.7092700000000001  7.0519400000000001 23.6012999999999984
  5.6037999999999997  4.2072700000000003  7.0083000000000002
  3.7385199999999998  3.0612599999999999 29.9786999999999999
  1.3185000000000000  0.1575720000000000 27.4723000000000006
  2.0385399999999998  0.7647480000000000 27.2011000000000003
  3.7793100000000002  6.4915700000000003 26.4614000000000011
  1.8353800000000000  1.0518600000000000 26.2720999999999982
  4.2016099999999996  7.1745400000000004 25.8811999999999998
  5.6501000000000001  5.1580599999999999  7.1154299999999999
  4.1500500000000002  7.9463900000000001 26.3847999999999985
  1.1173100000000000  7.7403599999999999  6.2932800000000002
  0.3453660000000000  7.1693600000000002  6.1987899999999998
  1.0487700000000000  8.0024099999999994  7.2076599999999997
  8.6641399999999997  0.3686690000000000  0.3865130000000000
  7.5783100000000001  2.9863700000000000  2.7332800000000002
  6.8409100000000000  3.3626499999999999  2.2593000000000001
  4.1741900000000003  4.3936500000000001 26.3755999999999986
  7.2014800000000001  4.1614699999999996  1.8855100000000000
  3.4893600000000000  4.6142700000000003 27.0435000000000016
  3.8313899999999999  4.4256700000000002 27.9061999999999983
  7.2704899999999997  1.0582600000000000 26.2039000000000009
  7.0054800000000004  0.3538640000000000 26.8565000000000005
  4.6582299999999996  4.0349599999999999  7.2624399999999998
  9.4981200000000001  7.6355199999999996  2.6386599999999998
  9.3952799999999996  8.0639599999999998  1.8055699999999999
  0.2504120000000000  7.8269599999999997  2.9704199999999998
  0.4541130000000000  7.7572500000000000 28.4461000000000013
  9.9801300000000008  7.4954900000000002 27.7051000000000016
 -0.0405772000000000  8.3845700000000001 29.0158999999999985
  6.6832900000000004  2.3467500000000001 24.0605000000000011
  7.4778900000000004  2.7957000000000001 23.8399999999999999
  6.8852500000000001  1.9500800000000000 25.0050999999999988
  4.3165899999999997  4.7502700000000004 29.5460999999999991
  5.2058999999999997  5.1101200000000002 29.3852000000000011
  3.8331700000000000  5.5034700000000001 29.8308000000000000
  8.8627699999999994  6.3114600000000003  6.4706999999999999
  9.0648199999999992  6.1067499999999999  7.4034899999999997
  9.2354000000000003  5.5435400000000001  6.0128199999999996
