Cu  O  H  O  H  O  H  O  H  O  H  O  H  O  H  O  H  O  H  O  H  O  H  O  H  O  H  O  H  O  H  O  H  O  H  O  H  O  H  O  H  O  H  O  H  O  H  O  H  O  H  O  H  O  H  O  H  O  H  O  H  O  H  O  H  O  H  O  H  O  H  O  H  O  H  O  H  O  H  O  H  O  H  O  H  O  H  O  H  O  H  O  H  O  H  O  H  O  H  O  H 
 1.0000000000000000
    10.1403771778044529    0.0000000000000000    0.0000000000000000
     0.0000000000000000    8.7818242399346058    0.0000000000000000
     0.0000000000000000    0.0000000000000000   30.1311271579000000
 Cu  O   H   O   H   O   H   O   H   O   H   O   H   O   H   O   H   O   H   O   H   O   H   O   H   O   H   O   H   O   H   O   H   O   H   O   H   O   H   O   H   O   H   O   H   O   H   O   H   O   H   O   H   O   H   O   H   O   H   O   H   O   H   O   H   O   H   O   H   O   H   O   H   O   H   O   H   O   H   O   H   O   H   O   H   O   H   O   H   O   H   O   H   O   H   O   H   O   H   O   H  
  96   1   2   1   2   1   2   1   2   1   2   1   2   1   2   1   2   1   2   1   2   1   2   1   2   1   2   1   2   1   2   1   1   1   2   1   2   1   3   1   2   1   2   1   2   1   1   1   2   1   2   1   2   1   2   1   2   1   1   1   2   1   3   1   2   1   2   1   2   1   2   1   2   1   2   1   2   1   2   1   2   1   2   1   4   1   2   1   1   1   2   1   2   1   2   1   2   1   2   1   2
Cartesian
  6.9245500000000000  1.0350999999999999  9.8440799999999999
  9.5734499999999993  0.9812620000000000  9.9948700000000006
  2.0405099999999998  1.1521600000000001  9.8513599999999997
  4.5727500000000001  1.1965100000000000 10.0062999999999995
  8.1035699999999995  3.1510600000000002  9.9002599999999994
  0.6133020000000000  3.2637399999999999 10.0602000000000000
  3.0396500000000000  3.3827799999999999  9.9574599999999993
  5.5678900000000002  3.3384200000000002 10.1130999999999993
  9.5750399999999996  5.5424400000000000  9.9445700000000006
  1.9305699999999999  5.5035900000000000  9.9296199999999999
  4.4742199999999999  5.5242300000000002 10.0360999999999994
  6.9928400000000002  5.3923800000000002  9.7752499999999998
  0.6537090000000000  7.7907999999999999  9.8511600000000001
  3.1174900000000001  7.6740700000000004 10.1251999999999995
  5.6454700000000004  7.6985000000000001  9.8825500000000002
  8.2522800000000007  7.8051700000000004  9.8346599999999995
  5.7289199999999996  1.7876799999999999 11.9636999999999993
  8.3828700000000005  1.8294999999999999 11.9553999999999991
  0.5943220000000000  1.6877700000000000 12.0038000000000000
  3.1713000000000000  1.7779300000000000 12.0429999999999993
  6.9650400000000001  3.9756200000000002 11.9670000000000005
  9.5036699999999996  4.0655200000000002 12.0167999999999999
  1.7775700000000001  3.9950600000000001 11.9740000000000002
  4.4005400000000003  3.9721899999999999 12.1135000000000002
  8.2332599999999996  6.1303900000000002 11.9405999999999999
  0.5742480000000000  6.0935600000000001 11.9387000000000008
  3.1854300000000002  6.1992300000000000 12.0198000000000000
  5.8121400000000003  6.1342900000000000 11.9467999999999996
  9.5560399999999994  8.3204200000000004 11.9329999999999998
  1.8821600000000001  8.2109799999999993 12.0229999999999997
  4.4724399999999997  8.4578500000000005 12.0524000000000004
  6.9907399999999997  8.4531100000000006 11.8802000000000003
  5.7039600000000004  0.3659090000000000 14.0305999999999997
  8.2390600000000003  0.3659090000000000 14.0305999999999997
  0.6337739999999999  0.3659090000000000 14.0305999999999997
  3.1688700000000001  0.3659090000000000 14.0305999999999997
  6.9715100000000003  2.5613700000000001 14.0305999999999997
  9.5066000000000006  2.5613700000000001 14.0305999999999997
  1.9013199999999999  2.5613700000000001 14.0305999999999997
  4.4364200000000000  2.5613700000000001 14.0305999999999997
  8.2390600000000003  4.7568200000000003 14.0305999999999997
  0.6337739999999999  4.7568200000000003 14.0305999999999997
  3.1688700000000001  4.7568200000000003 14.0305999999999997
  5.7039600000000004  4.7568200000000003 14.0305999999999997
  9.5066000000000006  6.9522800000000000 14.0305999999999997
  1.9013199999999999  6.9522800000000000 14.0305999999999997
  4.4364200000000000  6.9522800000000000 14.0305999999999997
  6.9715100000000003  6.9522800000000000 14.0305999999999997
  6.9715100000000003  1.0977300000000001 16.1005000000000003
  9.5066000000000006  1.0977300000000001 16.1005000000000003
  1.9013199999999999  1.0977300000000001 16.1005000000000003
  4.4364200000000000  1.0977300000000001 16.1005000000000003
  8.2390600000000003  3.2931800000000000 16.1005000000000003
  0.6337739999999999  3.2931800000000000 16.1005000000000003
  3.1688700000000001  3.2931800000000000 16.1005000000000003
  5.7039600000000004  3.2931800000000000 16.1005000000000003
  9.5066000000000006  5.4886400000000002 16.1005000000000003
  1.9013199999999999  5.4886400000000002 16.1005000000000003
  4.4364200000000000  5.4886400000000002 16.1005000000000003
  6.9715100000000003  5.4886400000000002 16.1005000000000003
  0.6337739999999999  7.6840999999999999 16.1005000000000003
  3.1688700000000001  7.6840999999999999 16.1005000000000003
  5.7039600000000004  7.6840999999999999 16.1005000000000003
  8.2390600000000003  7.6840999999999999 16.1005000000000003
  5.7127100000000004  1.8147000000000000 18.1329999999999991
  8.2492500000000000  1.8755400000000000 18.2573000000000008
  0.6733180000000000  1.8642500000000000 18.1247000000000007
  3.2122700000000002  1.9113000000000000 18.0990000000000002
  7.0193899999999996  4.0974500000000003 18.0946999999999996
  9.4902599999999993  4.0616899999999996 18.1880999999999986
  1.9351499999999999  3.9262400000000000 18.2347000000000001
  4.5267299999999997  4.0370100000000004 18.2646000000000015
  8.2984100000000005  6.2362399999999996 18.1163999999999987
  0.6557480000000000  6.1489099999999999 18.0881000000000007
  3.2043499999999998  6.2121599999999999 18.2620000000000005
  5.8075200000000002  6.1631600000000004 18.1966999999999999
  9.5871700000000004  8.3702199999999998 18.0771000000000015
  1.8988400000000001  8.4235000000000007 18.1803999999999988
  4.5571500000000000  8.3600600000000007 18.2743000000000002
  7.0359400000000001  8.4476499999999994 18.1386000000000003
  5.8601799999999997  0.3323620000000000 20.3364000000000011
  8.2877299999999998  0.4561810000000000 20.2968000000000011
  0.5589960000000000  0.3279140000000000 20.1085999999999991
  3.2326100000000002  0.3976990000000000 20.3215000000000003
  6.9540400000000000  2.6140500000000002 20.2532999999999994
  9.5571199999999994  2.5358399999999999 20.3125999999999998
  1.8702000000000001  2.5656800000000000 20.1022999999999996
  4.5788399999999996  2.5576500000000002 20.4393999999999991
  8.2733200000000000  4.8689099999999996 20.2962999999999987
  0.6030630000000000  4.6964699999999997 20.1492000000000004
  3.2432300000000001  4.7047699999999999 20.2788000000000004
  5.7536199999999997  4.8567000000000000 20.2518999999999991
  9.5331100000000006  6.9392600000000000 20.1942999999999984
  1.9064900000000000  7.0263600000000004 20.1905999999999999
  4.5445399999999996  7.0070300000000003 20.2747999999999990
  7.0344100000000003  7.0404799999999996 20.1363999999999983
  8.1248199999999997  3.8880200000000000 24.3079999999999998
  7.4199200000000003  4.2620699999999996 23.7041000000000004
  8.8661899999999996  4.4228399999999999 24.0603000000000016
  7.1719299999999997  0.1093950000000000  6.7211999999999996
  6.2051400000000001  0.3740700000000000  6.7759400000000003
  7.2380000000000004  7.9754600000000000  7.0382800000000003
  3.0614699999999999  0.3533700000000000 22.3875999999999991
  4.7770500000000000  2.5616099999999999 26.3768999999999991
  2.1980300000000002  0.5290440000000000 22.7749999999999986
  1.9670600000000000  0.4849540000000000  1.3169500000000001
  1.5960700000000001  8.5274500000000000  0.8488380000000000
  1.2978400000000001  0.7255740000000001  1.9144000000000001
  6.1479900000000001  8.1010700000000000 24.3627000000000002
  5.3058699999999996  8.5418900000000004 24.4754000000000005
  6.7096099999999996 -0.0368158000000000 23.8608000000000011
  1.6739400000000000  4.1227299999999998  1.9208700000000001
  3.4823900000000001  0.6057300000000000  3.3220200000000002
  2.4224999999999999  4.7147300000000003  2.2466100000000000
  0.8344530000000000  3.0051899999999998  5.9786799999999998
  4.1556100000000002  1.4665900000000001  6.5750799999999998
  0.9641610000000000  3.8803200000000002  5.5982200000000004
  3.4725299999999999  8.6650100000000005  3.9953500000000002
  5.9787800000000004  5.6369499999999997 28.7452000000000005
  3.4975299999999998  0.3181430000000000  4.8321600000000000
  2.7683800000000001  6.6171699999999998 23.9554000000000009
  3.1025399999999999  7.4132199999999999 23.4909999999999997
  8.9292099999999994  6.0706699999999998 27.0784999999999982
  9.5776800000000009  6.6893000000000002 26.7408999999999999
  0.3039250000000000  6.5700500000000002 27.1651999999999987
  2.4761199999999999  6.6162700000000001 29.5235999999999983
  5.9886100000000004  4.7993199999999998 28.2918999999999983
  6.7909199999999998  4.7433500000000004 27.6795000000000009
  9.7966700000000007  7.1287500000000001 24.0091999999999999
  0.8848910000000000  6.9991800000000000 29.6614000000000004
  0.4422140000000000  7.7757399999999999 29.1886000000000010
  0.1521360000000000  6.4914600000000000 30.0548999999999999
  4.3905599999999998  0.4891270000000000  6.8400299999999996
  2.0647000000000002  3.7528400000000000  1.0518200000000000
  3.7256100000000001  0.3086870000000000  7.5182599999999997
  1.8729400000000000  3.6122800000000002 24.8074000000000012
  1.6976500000000001  2.7874200000000000 24.3811000000000000
  1.3702200000000000  4.2082499999999996 24.2588000000000008
  5.0569400000000000  2.1900900000000001 27.1784999999999997
  0.7682230000000000  2.5122499999999999  5.1607500000000002
  5.4412099999999999  3.0114899999999998 27.5579999999999998
  1.1007000000000000  5.3502400000000003  4.5958899999999998
  1.5113799999999999  5.7199000000000000  5.4328399999999997
  8.7284000000000006  6.4205899999999998  3.3978600000000001
  8.9626900000000003  6.0998400000000004  2.4879199999999999
  9.5447900000000008  6.2364300000000004  3.9361799999999998
  2.6468900000000000  3.4924100000000000 29.4058999999999990
  2.7597600000000000  4.4631100000000004 29.2921000000000014
  3.4674499999999999  3.0656800000000000 29.5085000000000015
  4.6050100000000000  4.2742100000000001 24.8698000000000015
  3.6890299999999998  4.5222800000000003 24.7658999999999985
  5.1767099999999999  4.9837499999999997 24.5010000000000012
  1.8378099999999999  5.4297500000000003  3.9799699999999998
  3.2661400000000000  6.1002599999999996 29.1315999999999988
  4.0137099999999997  6.4756099999999996 29.5572000000000017
  6.5821100000000001  8.3211200000000005 26.3475999999999999
  6.7672100000000004  0.0089061600000000 27.1384000000000007
  6.3664300000000003  0.8587129999999999 27.1183000000000014
  2.5323099999999998  6.9308500000000004 24.8938999999999986
  7.2649600000000003  3.7124100000000002  0.4666860000000000
  7.7200499999999996  2.8660999999999999  0.4024170000000000
  6.8637800000000002  4.0053099999999997 29.7832000000000008
  9.3987300000000005  7.8855500000000003 24.4786000000000001
  9.3419699999999999  7.6407299999999996 25.4063000000000017
  0.6498610000000000  1.1396599999999999 23.2683999999999997
  0.2952090000000000  1.4456500000000001 22.4086999999999996
  6.1678899999999999  8.1468000000000007 28.5488999999999997
  6.0117799999999999  7.4787299999999997 29.2557000000000009
  3.7953100000000002  6.6510800000000003  6.5782600000000002
  6.1685699999999999  7.8806900000000004 30.1269999999999989
  4.4603999999999999  6.0741500000000004  7.0381600000000004
 10.1258999999999997  0.5484920000000000 23.6830999999999996
  4.4538900000000003  6.3507999999999996  7.9873300000000000
  8.5518500000000000  2.8666100000000001  7.2656700000000001
  9.4214000000000002  2.8622500000000000  6.8925799999999997
  8.0673100000000009  2.0352100000000002  7.1216999999999997
  3.3967800000000001  3.2123200000000001  6.4138000000000002
  2.4627500000000002  3.2647900000000001  6.6878700000000002
  0.1986590000000000  4.8221999999999996  0.9423220000000000
  9.4576100000000007  5.2261899999999999  0.8386190000000000
  0.2019920000000000  1.1470400000000001 27.6671000000000014
  9.9081899999999994  0.3927270000000000 28.1094000000000008
  3.6951800000000001  3.9994700000000001  6.8869400000000001
  9.0996000000000006  0.2617230000000000 27.6375999999999991
  3.2836200000000000  6.1024900000000004  2.8672599999999999
  4.1185600000000004  5.6855799999999999  2.8924699999999999
  3.4825499999999998  6.9929600000000001  3.1950300000000000
  6.5904400000000001  5.7356199999999999  7.0812099999999996
  7.1877800000000001  5.2918000000000003  7.7025199999999998
  4.6535900000000003  2.6655199999999999 24.3701000000000008
  7.3493800000000000  4.3653399999999998  7.3760500000000002
  4.5780399999999997  1.7965300000000000 23.9236000000000004
  5.4395699999999998  1.6738100000000000 23.5254000000000012
  3.4364100000000000  1.0028100000000000 27.9579999999999984
  7.7764800000000003  1.8170299999999999  3.2984200000000001
  7.6003699999999998  1.3300099999999999  4.0781299999999998
  7.2430700000000003  1.3739699999999999  2.6409500000000001
  7.4013099999999996  1.3465600000000000 23.2611999999999988
  7.6738799999999996  2.1918799999999998 23.6663999999999994
  5.7969900000000001  7.9077299999999999  4.1556300000000004
  6.2910100000000000  7.5746099999999998  3.4413499999999999
  5.2023799999999998  3.4540799999999998  3.9040599999999999
  7.2655599999999998  7.4411199999999997  3.6019899999999998
  4.6109299999999998  2.7164199999999998  4.0399099999999999
  7.4682700000000004  1.4522299999999999 22.3571999999999989
  3.9946700000000002  2.9490699999999999  4.6804699999999997
  4.1396300000000004  2.2836500000000002  1.3257399999999999
  4.2484700000000002  2.5045799999999998  2.3005599999999999
  3.3912100000000001  1.6624900000000000  1.1931700000000001
  6.5022799999999998  5.6453199999999999 23.2667999999999999
  8.8789599999999993  4.5326199999999996  0.5192940000000000
  9.8876200000000001  0.1996810000000000  7.6238000000000001
  9.9469100000000008  8.6648999999999994  6.6504899999999996
  0.9788870000000000  3.3215599999999998 26.4466999999999999
  9.4032900000000001  0.5435720000000001  6.2095599999999997
  0.6239040000000000  3.1198299999999999 27.3180000000000014
  6.3496199999999998  6.4623200000000001 23.8615999999999993
  1.3132999999999999  3.4254899999999999 27.9314999999999998
  0.5550340000000000  1.9679300000000000  3.2330800000000002
  0.9933590000000000  2.7512900000000000  2.8993300000000000
  9.7800799999999999  1.9950100000000000  3.0296599999999998
  3.6522500000000000  0.9260389999999999 22.9571000000000005
  0.2487080000000000  5.6417900000000003 22.4279000000000011
  0.3613150000000000  5.5390899999999998 23.4130000000000003
  5.9703499999999998  8.6771499999999993  2.2484400000000000
  1.2253700000000001  5.9435799999999999 23.5284000000000013
  6.1929999999999996  0.4607980000000000  1.4392700000000000
  5.4019300000000001  1.0431500000000000  1.3256699999999999
  2.6277499999999998  0.5396290000000000 28.2621000000000002
  2.1248200000000002  1.2075100000000001 28.7882999999999996
  5.8477800000000002  5.7692800000000002 22.5721999999999987
  8.6860499999999998  1.3644300000000000  0.3170090000000000
  8.1451399999999996  0.7408080000000000  0.7311560000000000
  9.1658799999999996  0.9919880000000000 29.6481999999999992
  8.2459500000000006  4.3760199999999996 26.9854999999999983
  8.0752500000000005  4.0319900000000004 26.0624000000000002
  8.8891399999999994  3.7371500000000002 27.2392000000000003
  2.3616400000000000  7.1637399999999998 26.6220999999999997
  2.8910800000000001  6.6269700000000000 27.2303999999999995
  2.2484999999999999  8.0053400000000003 27.0917999999999992
  1.6932600000000000  6.6977900000000004  6.8561699999999997
  1.6722200000000000  6.4561999999999999  7.8165699999999996
  0.9936199999999999  7.4115599999999997  6.9115300000000000
  5.5955300000000001  4.7729499999999998  2.5781000000000001
  5.9581600000000003  4.3226899999999997  1.7489500000000000
  6.0497500000000004  5.6173799999999998  2.5782900000000000
