Cu O  H  O  H  O  H  O  H  O  H  O  H  O  H  O  H  O  H  O  H  O  H  O  H  O  H  O  H  O  H  O  H  O  H  O  H  O  H  O  H  O  H  O  H  O  H  O  H  O  H  O  H  O  H  O  H  O  H  O  H  O  H  O  H  O  H  O  H  O  H  O  H  O  H  O  H  O  H  O  H  O  H  O  H  O  H  O  H  O  H  O  H  O  H  O  H  O  H  O  H 
 1.0000000000000000
    10.1403771778044529    0.0000000000000000    0.0000000000000000
     0.0000000000000000    8.7818242399346058    0.0000000000000000
     0.0000000000000000    0.0000000000000000   30.1311271579000000
 Cu  O   H   O   H   O   H   O   H   O   H   O   H   O   H   O   H   O   H   O   H   O   H   O   H   O   H   O   H   O   H   O   H   O   H   O   H   O   H   O   H   O   H   O   H   O   H   O   H   O   H   O   H   O   H   O   H   O   H   O   H   O   H   O   H   O   H   O   H   O   H   O   H   O   H   O   H   O   H   O   H   O   H   O   H   O   H   O   H   O   H   O   H   O   H   O   H   O   H   O   H  
  96   1   2   1   2   1   2   1   2   1   2   1   2   1   2   1   2   1   2   1   2   1   2   1   2   1   2   1   2   1   2   1   1   1   2   1   2   1   3   1   2   1   2   1   2   1   1   1   2   1   2   1   2   1   2   1   2   1   1   1   2   1   3   1   2   1   2   1   2   1   2   1   2   1   2   1   2   1   2   1   2   1   2   1   4   1   2   1   1   1   2   1   2   1   2   1   2   1   2   1   2
Cartesian
  6.8402399999999997  1.1115500000000000  9.9112500000000008
  9.3233599999999992  1.2950699999999999  9.7669099999999993
  1.7490600000000001  1.2383000000000000 10.0762999999999998
  4.3021799999999999  1.0336000000000001  9.8477899999999998
  8.1049600000000002  3.3759999999999999 10.0366999999999997
  0.4970460000000000  3.4120499999999998  9.9960799999999992
  3.1931500000000002  3.2822300000000002  9.9957399999999996
  5.7716000000000003  3.3243999999999998 10.0152999999999999
  9.5215700000000005  5.5952799999999998  9.8636099999999995
  1.9229799999999999  5.5210100000000004  9.9360199999999992
  4.4788899999999998  5.5094200000000004  9.7197800000000001
  6.9520600000000004  5.4211200000000002  9.9802999999999997
  0.5442939999999999  7.7713999999999999  9.8327700000000000
  3.0087199999999998  7.7298700000000000  9.9934700000000003
  5.6379099999999998  7.7701300000000000  9.8654299999999999
  8.2041699999999995  7.6456700000000000  9.7540200000000006
  5.7455200000000000  1.8039099999999999 11.9751999999999992
  8.1535499999999992  1.9285600000000001 11.9270999999999994
  0.5183090000000000  1.8718300000000001 12.0207999999999995
  3.1119100000000000  1.8600699999999999 11.9809000000000001
  6.9146999999999998  4.1219000000000001 12.0084999999999997
  9.4382000000000001  4.0776500000000002 12.0364000000000004
  1.8585000000000000  4.0100800000000003 11.9319000000000006
  4.3256800000000002  4.0751099999999996 11.9964999999999993
  8.1658799999999996  6.3230899999999997 11.9404000000000003
  0.5259480000000000  6.1681400000000002 11.8260000000000005
  3.1327900000000000  6.2899599999999998 11.8434000000000008
  5.5966399999999998  6.1375500000000001 11.9252000000000002
  9.4081499999999991  8.4588599999999996 11.8575999999999997
  1.7572300000000001  8.4489199999999993 11.9855000000000000
  4.4480199999999996  8.4334500000000006 12.1045999999999996
  6.9795999999999996  8.4981799999999996 11.9106000000000005
  5.7039600000000004  0.3659090000000000 14.0305999999999997
  8.2390600000000003  0.3659090000000000 14.0305999999999997
  0.6337739999999999  0.3659090000000000 14.0305999999999997
  3.1688700000000001  0.3659090000000000 14.0305999999999997
  6.9715100000000003  2.5613700000000001 14.0305999999999997
  9.5066000000000006  2.5613700000000001 14.0305999999999997
  1.9013199999999999  2.5613700000000001 14.0305999999999997
  4.4364200000000000  2.5613700000000001 14.0305999999999997
  8.2390600000000003  4.7568200000000003 14.0305999999999997
  0.6337739999999999  4.7568200000000003 14.0305999999999997
  3.1688700000000001  4.7568200000000003 14.0305999999999997
  5.7039600000000004  4.7568200000000003 14.0305999999999997
  9.5066000000000006  6.9522800000000000 14.0305999999999997
  1.9013199999999999  6.9522800000000000 14.0305999999999997
  4.4364200000000000  6.9522800000000000 14.0305999999999997
  6.9715100000000003  6.9522800000000000 14.0305999999999997
  6.9715100000000003  1.0977300000000001 16.1005000000000003
  9.5066000000000006  1.0977300000000001 16.1005000000000003
  1.9013199999999999  1.0977300000000001 16.1005000000000003
  4.4364200000000000  1.0977300000000001 16.1005000000000003
  8.2390600000000003  3.2931800000000000 16.1005000000000003
  0.6337739999999999  3.2931800000000000 16.1005000000000003
  3.1688700000000001  3.2931800000000000 16.1005000000000003
  5.7039600000000004  3.2931800000000000 16.1005000000000003
  9.5066000000000006  5.4886400000000002 16.1005000000000003
  1.9013199999999999  5.4886400000000002 16.1005000000000003
  4.4364200000000000  5.4886400000000002 16.1005000000000003
  6.9715100000000003  5.4886400000000002 16.1005000000000003
  0.6337739999999999  7.6840999999999999 16.1005000000000003
  3.1688700000000001  7.6840999999999999 16.1005000000000003
  5.7039600000000004  7.6840999999999999 16.1005000000000003
  8.2390600000000003  7.6840999999999999 16.1005000000000003
  5.7342100000000000  1.8125700000000000 18.1415000000000006
  8.3050800000000002  1.7606900000000001 18.2332000000000001
  0.6562650000000000  1.8984500000000000 18.1138000000000012
  3.3575400000000002  1.8198099999999999 18.1555999999999997
  7.0479700000000003  4.0444699999999996 18.2160000000000011
  9.6021400000000003  4.0410000000000004 18.2811999999999983
  1.8903399999999999  4.0739500000000000 18.1647999999999996
  4.5155200000000004  3.9205299999999998 18.1633999999999993
  8.2750199999999996  6.1713399999999998 18.2609999999999992
  0.6665660000000000  6.2842300000000000 18.2728000000000002
  3.2407400000000002  6.3308000000000000 18.2009000000000007
  5.7980999999999998  6.1289400000000001 18.2318999999999996
  9.5654100000000000  8.3454700000000006 18.1097000000000001
  1.9006500000000000  8.5074799999999993 18.2676000000000016
  4.4804399999999998  8.4735999999999994 18.2500000000000000
  7.0665500000000003  8.3986400000000003 18.1239999999999988
  5.7384399999999998  0.4116900000000000 20.1832999999999991
  8.1791800000000006  0.2732080000000000 20.1875999999999998
  0.6056620000000000  0.4343470000000000 20.1507000000000005
  3.1507499999999999  0.4000400000000000 20.2833000000000006
  7.0739500000000000  2.6171500000000001 20.1898000000000017
  9.5188199999999998  2.4319099999999998 20.1966000000000001
  2.0480800000000001  2.6752300000000000 20.1630000000000003
  4.5396500000000000  2.5302099999999998 20.6372999999999998
  8.2553800000000006  4.7526200000000003 20.3827999999999996
  0.6576010000000000  4.7541300000000000 20.2288999999999994
  3.1523200000000000  4.8733100000000000 20.1932000000000009
  5.6344900000000004  4.7058799999999996 20.1581000000000010
  9.6130700000000004  7.1101900000000002 20.3098999999999990
  1.9578899999999999  7.0312099999999997 20.3826000000000001
  4.4514500000000004  6.9991099999999999 20.2877000000000010
  6.8136299999999999  6.9306900000000002 20.3337000000000003
  9.3441299999999998  6.3154100000000000 24.2181999999999995
  9.5100700000000007  5.4710200000000002 23.8358999999999988
  9.9624000000000006  6.9042800000000000 23.7756000000000007
  8.7577599999999993  2.1650299999999998 29.6833999999999989
  8.2590400000000006  2.7863199999999999  0.2217050000000000
  9.6164600000000000  2.5994899999999999 29.7057000000000002
  1.9724400000000000  1.9071700000000000 24.0437000000000012
  2.1089699999999998  5.7761500000000003 28.3998999999999988
  2.8822299999999998  2.1204999999999998 23.5427999999999997
  6.1437700000000000  4.5364599999999999 23.7270000000000003
  6.4372900000000000  5.3892100000000003 23.2713000000000001
  6.7253600000000002  3.8391500000000001 23.4370000000000012
  5.3518800000000004  1.3499099999999999 26.5047999999999995
  6.1431199999999997  1.9811200000000000 26.7267000000000010
  5.3710899999999997  0.6972790000000000 27.2597999999999985
  9.4933499999999995  7.2255300000000000 26.8845999999999989
  8.2426300000000001  0.4663020000000000 28.9482999999999997
  9.5086600000000008  6.7674300000000001 26.0349000000000004
  5.4914399999999999  1.2202599999999999  1.1289700000000000
  7.6899699999999998  2.3558900000000000  3.5000200000000001
  5.4876300000000002  0.6142830000000000  0.3572870000000000
  7.7874400000000001 -0.1521090000000000 28.3908999999999985
  1.5529700000000000  1.0600000000000001 25.5666000000000011
  8.4748400000000004  8.2428200000000000 27.7624999999999993
  8.1587300000000003  1.9877600000000000 23.5696000000000012
  8.7479499999999994  1.2697900000000000 23.7755000000000010
  1.0064900000000001  0.2170330000000000 23.1404999999999994
  0.0740309000000000  8.7802000000000007 23.3651000000000018
 -0.3714910000000000  8.7280899999999999 22.4421999999999997
  1.4296100000000000  0.3101320000000000  7.4297800000000001
  1.4128400000000001  0.5331410000000000 26.3468000000000018
  0.8621220000000001  8.6003100000000003 26.0837000000000003
  6.5217099999999997  5.3317600000000001 25.5487000000000002
  3.2954500000000002  2.8250700000000002 27.7186999999999983
  3.7605800000000000  2.4043399999999999 26.9991999999999983
  3.9973500000000000  2.9679000000000002 28.3944000000000010
  7.2689599999999999  3.2120099999999998  3.6641499999999998
 10.1098999999999997  6.6509999999999998 27.3831999999999987
  7.6103899999999998  3.5037799999999999  4.5413800000000002
  1.6604200000000000  0.7454110000000000 29.2755000000000010
  1.6665700000000001  0.6292510000000000 28.2862000000000009
  2.2845599999999999  1.4741700000000000 29.3475999999999999
  1.3942800000000000  5.3383000000000003 27.9125000000000014
  6.3657300000000001  1.2547200000000001  1.5371500000000000
  1.6648300000000000  4.4559100000000003 27.6488000000000014
  4.4546200000000002  2.3172100000000002 22.8563000000000009
  4.8422900000000002  1.5156900000000000 23.2944999999999993
  0.3037930000000000  5.3758299999999997  2.0221000000000000
  9.7635299999999994  5.7999200000000002  2.5708400000000000
  1.0430200000000001  6.0425199999999997  2.1718400000000000
  7.6477700000000004  3.9926100000000000  0.9766250000000000
  7.5834299999999999  4.0644600000000004  1.9740400000000000
  7.4061100000000000  4.9383100000000004  0.9197220000000000
  0.0129492000000000  4.0163599999999997 23.2238000000000007
  0.4985740000000000  3.8325999999999998 22.4131999999999998
  9.4547799999999995  3.3120500000000002 23.3674999999999997
  4.8047199999999997  3.1024600000000002 23.3567999999999998
  0.6318180000000000  0.2152570000000000  6.8964400000000001
  0.6812650000000000  0.9974440000000000  6.3365700000000000
  0.1875510000000000  0.6971490000000000  0.4114940000000000
  0.0424189000000000  0.6378870000000000  1.3536900000000001
  0.2964100000000000  1.4624299999999999  1.7340100000000001
  8.1234699999999993  1.9591700000000001 22.6016000000000012
  5.1296499999999998  8.6567699999999999 28.7523000000000017
  4.5775100000000002  7.8587699999999998 29.0483000000000011
  6.0454999999999997  8.3906200000000002 28.7609999999999992
  6.7587900000000003  6.0232500000000000 26.1992000000000012
  7.7162800000000002  6.1830400000000001 26.1056999999999988
 -0.0523840000000000  3.0856800000000000 26.7205000000000013
  9.1549600000000009  3.0531700000000002 26.7963999999999984
  0.4397010000000000  4.3186099999999996  0.6468210000000000
  0.6755560000000000  3.7946800000000001 29.9674000000000014
  4.8700299999999999  5.4886799999999996  6.5777900000000002
  0.6943810000000000  4.4385199999999996 29.1830999999999996
  5.4030500000000004  4.7044699999999997  6.6093700000000002
  0.3301880000000000  2.2078700000000002 26.8457000000000008
  5.4938399999999996  4.4397099999999998  7.5921799999999999
  7.9761800000000003  2.1086000000000000  6.3969399999999998
  8.1298300000000001  1.1343600000000000  6.3860799999999998
  8.2402999999999995  2.3513899999999999  7.3351199999999999
  1.7916500000000000  6.9278899999999997  5.3443800000000001
  1.3734299999999999  6.2436699999999998  5.7927900000000001
  1.5237300000000000  8.0928500000000003  1.5140899999999999
  2.2477000000000000  7.5521000000000003  1.9187399999999999
  6.7535400000000001  4.7487100000000000 27.3050999999999995
  6.6418100000000004  3.8666600000000000 27.8175999999999988
  1.3350200000000001  7.7818399999999999  5.4544800000000002
  7.4513699999999998  3.7075000000000000 28.3999999999999986
  3.3685100000000001  5.6093200000000003  3.4542700000000002
  2.8747199999999999  5.4390999999999998  2.6078600000000001
  2.7121200000000001  6.0872799999999998  4.0721299999999996
  4.9794299999999998  1.1048000000000000  5.3608000000000002
  4.3894299999999999  1.9446000000000001  5.5542899999999999
  6.3236699999999999  7.7730399999999999 23.4383000000000017
  4.9482299999999997  2.6781400000000000  5.7985100000000003
  6.8438999999999997  7.0937099999999997 22.9879999999999995
  7.7209000000000003  7.1603100000000000 23.3785999999999987
  7.6985200000000003  7.7762200000000004  1.4426699999999999
  4.1305100000000001  7.3136999999999999  6.7103099999999998
  3.2049400000000001  7.0995200000000001  6.3640999999999996
  3.9374099999999999  7.5632700000000002  7.6341400000000004
  3.0686000000000000  6.9202700000000004 29.3227000000000011
  2.4814500000000002  7.5891900000000003 29.5862000000000016
  8.6292200000000001  6.5339900000000002  7.3540299999999998
  8.5841499999999993  7.4829900000000000  7.5377799999999997
  8.8244100000000003  4.6082999999999998  6.6823699999999997
  9.4538700000000002  7.7858200000000002  7.1938800000000001
  8.2318200000000008  5.0888700000000000  6.1013299999999999
  3.0928800000000001  6.3422200000000002 -0.0289162000000000
  7.3474899999999996  4.8133499999999998  6.4148500000000004
  0.8205050000000000  4.7013900000000000  6.9561400000000004
  1.1999599999999999  4.5581199999999997  7.8690800000000003
  0.8341320000000000  3.7805599999999999  6.6493799999999998
  3.3593400000000000  6.8151000000000002 23.8607000000000014
  2.7011799999999999  8.1205599999999993  2.5137800000000001
  8.4686800000000009  6.2721600000000004  4.6141899999999998
  8.4091699999999996  6.8171799999999996  3.7841900000000002
  1.0222899999999999  2.5755800000000000  4.7955899999999998
  7.4816900000000004  6.6463400000000004  3.5546300000000000
  1.2353700000000001  2.3012100000000002  5.7284800000000002
  2.7599000000000000  6.6232899999999999 23.1993000000000009
  2.2082999999999999  2.2542100000000000  5.7709299999999999
  3.1900900000000001  1.1321699999999999  3.1679400000000002
  3.5192800000000002  1.5564899999999999  4.0199699999999998
  3.8690699999999998  1.2918000000000001  2.4733900000000002
  1.4658500000000001  2.7715299999999998 23.9969000000000001
  5.7203600000000003  3.7296499999999999 29.3028000000000013
  5.0311500000000002  3.6341899999999998 29.9911999999999992
  5.1090799999999996  0.5255440000000000 25.0771000000000015
  5.2994100000000000  2.8128199999999999  0.2943410000000000
  5.0136099999999999  0.0992347000000000 24.2093999999999987
  4.3301699999999999  8.2482299999999995 24.3799999999999990
  7.6519399999999997  6.9444699999999999  0.9484220000000000
  7.7152900000000004  7.2803699999999996  0.0138763000000000
  3.9251600000000000  6.0217499999999999 24.0722999999999985
  0.9934720000000000  2.7593200000000002  3.0055200000000002
  0.8043930000000000  3.6917800000000001  2.8296399999999999
  1.9374700000000000  2.4208599999999998  3.0769199999999999
  2.9772500000000002  4.8914099999999996  0.8135840000000000
  2.2457099999999999  4.2333400000000001  0.6696550000000000
  3.7848299999999999  4.4104200000000002  0.4427350000000000
  5.7871400000000000  6.7347999999999999  3.0498400000000001
  4.9233799999999999  6.2399199999999997  3.2542900000000001
  5.8985000000000003  6.8834400000000002  2.0513599999999999
  7.7050000000000001  0.4838390000000000  2.7584800000000000
  8.5942000000000007  0.4674470000000000  2.4406699999999999
  7.6573099999999998  8.5311000000000003  3.3991600000000002
  5.7298400000000003  8.5671599999999994  4.8963000000000001
  5.4584500000000000  8.3358100000000004  3.9427300000000001
  5.0694400000000002  8.1971500000000006  5.4744999999999999
