Cu O  H  O  H  O  H  O  H  O  H  O  H  O  H  O  H  O  H  O  H  O  H  O  H  O  H  O  H  O  H  O  H  O  H  O  H  O  H  O  H  O  H  O  H  O  H  O  H  O  H  O  H  O  H  O  H  O  H  O  H  O  H  O  H  O  H  O  H  O  H  O  H  O  H  O  H  O  H  O  H  O  H  O  H  O  H  O  H  O  H  O  H  O  H  O  H  O  H  O  H 
 1.0000000000000000
    10.1403771778044529    0.0000000000000000    0.0000000000000000
     0.0000000000000000    8.7818242399346058    0.0000000000000000
     0.0000000000000000    0.0000000000000000   30.1311271579000000
 Cu  O   H   O   H   O   H   O   H   O   H   O   H   O   H   O   H   O   H   O   H   O   H   O   H   O   H   O   H   O   H   O   H   O   H   O   H   O   H   O   H   O   H   O   H   O   H   O   H   O   H   O   H   O   H   O   H   O   H   O   H   O   H   O   H   O   H   O   H   O   H   O   H   O   H   O   H   O   H   O   H   O   H   O   H   O   H   O   H   O   H   O   H   O   H   O   H   O   H   O   H  
  96   1   2   1   2   1   2   1   2   1   2   1   2   1   2   1   2   1   2   1   2   1   2   1   2   1   2   1   2   1   2   1   1   1   2   1   2   1   3   1   2   1   2   1   2   1   1   1   2   1   2   1   2   1   2   1   2   1   1   1   2   1   3   1   2   1   2   1   2   1   2   1   2   1   2   1   2   1   2   1   2   1   2   1   4   1   2   1   1   1   2   1   2   1   2   1   2   1   2   1   2
Cartesian
  6.9300300000000004  0.9832500000000000  9.8994199999999992
  9.4344000000000001  1.1701500000000000  9.9699600000000004
  1.8187100000000000  1.2131200000000000  9.8510500000000008
  4.3460299999999998  1.0109300000000001  9.9308300000000003
  8.1695799999999998  3.2883200000000001  9.8521099999999997
  0.7028080000000000  3.2992400000000002  9.8384900000000002
  3.2241100000000000  3.3628800000000001  9.7771799999999995
  5.8380799999999997  3.3468800000000001  9.8183699999999998
  9.4819300000000002  5.4537899999999997  9.8445000000000000
  2.0632799999999998  5.5157999999999996 10.0279000000000007
  4.4971199999999998  5.5289299999999999  9.9547100000000004
  7.0301900000000002  5.5820100000000004  9.8655399999999993
  0.6493580000000000  7.6505599999999996 10.0025999999999993
  3.1774600000000000  7.7255200000000004  9.7976299999999998
  5.6269499999999999  7.6205999999999996  9.6394300000000008
  8.3757699999999993  7.7121899999999997  9.8832699999999996
  5.7499700000000002  1.9010400000000001 11.9337999999999997
  8.1749500000000008  1.8802000000000001 11.9699000000000009
  0.5873130000000000  1.8093900000000001 12.0038000000000000
  3.2111700000000001  1.8849100000000001 11.9563000000000006
  6.9830699999999997  4.0561999999999996 11.8939000000000004
  9.3985900000000004  4.1147200000000002 11.9370999999999992
  1.8412999999999999  3.9928100000000000 11.8568999999999996
  4.3858499999999996  4.0867199999999997 11.9807000000000006
  8.1951599999999996  6.1813700000000003 11.8926999999999996
  0.5554840000000000  6.3055399999999997 11.8542000000000005
  3.1111100000000000  6.2383499999999996 12.0207999999999995
  5.5894399999999997  6.2328299999999999 12.0667000000000009
  9.4411400000000008  8.4313300000000009 11.9723000000000006
  2.0789399999999998  8.4219799999999996 11.9234000000000009
  4.4154400000000003  8.3366500000000006 11.8575999999999997
  6.9523599999999997  8.3373899999999992 11.9337999999999997
  5.7039600000000004  0.3659090000000000 14.0305999999999997
  8.2390600000000003  0.3659090000000000 14.0305999999999997
  0.6337739999999999  0.3659090000000000 14.0305999999999997
  3.1688700000000001  0.3659090000000000 14.0305999999999997
  6.9715100000000003  2.5613700000000001 14.0305999999999997
  9.5066000000000006  2.5613700000000001 14.0305999999999997
  1.9013199999999999  2.5613700000000001 14.0305999999999997
  4.4364200000000000  2.5613700000000001 14.0305999999999997
  8.2390600000000003  4.7568200000000003 14.0305999999999997
  0.6337739999999999  4.7568200000000003 14.0305999999999997
  3.1688700000000001  4.7568200000000003 14.0305999999999997
  5.7039600000000004  4.7568200000000003 14.0305999999999997
  9.5066000000000006  6.9522800000000000 14.0305999999999997
  1.9013199999999999  6.9522800000000000 14.0305999999999997
  4.4364200000000000  6.9522800000000000 14.0305999999999997
  6.9715100000000003  6.9522800000000000 14.0305999999999997
  6.9715100000000003  1.0977300000000001 16.1005000000000003
  9.5066000000000006  1.0977300000000001 16.1005000000000003
  1.9013199999999999  1.0977300000000001 16.1005000000000003
  4.4364200000000000  1.0977300000000001 16.1005000000000003
  8.2390600000000003  3.2931800000000000 16.1005000000000003
  0.6337739999999999  3.2931800000000000 16.1005000000000003
  3.1688700000000001  3.2931800000000000 16.1005000000000003
  5.7039600000000004  3.2931800000000000 16.1005000000000003
  9.5066000000000006  5.4886400000000002 16.1005000000000003
  1.9013199999999999  5.4886400000000002 16.1005000000000003
  4.4364200000000000  5.4886400000000002 16.1005000000000003
  6.9715100000000003  5.4886400000000002 16.1005000000000003
  0.6337739999999999  7.6840999999999999 16.1005000000000003
  3.1688700000000001  7.6840999999999999 16.1005000000000003
  5.7039600000000004  7.6840999999999999 16.1005000000000003
  8.2390600000000003  7.6840999999999999 16.1005000000000003
  5.7251599999999998  1.7870600000000001 18.2458999999999989
  8.3304600000000004  1.8689499999999999 18.4149999999999991
  0.7190150000000000  1.7585299999999999 18.1256999999999984
  3.1867600000000000  1.8385100000000001 18.0756000000000014
  6.9444299999999997  3.9251900000000002 18.1404999999999994
  9.4737799999999996  4.0659900000000002 18.1071999999999989
  1.8455800000000000  4.0201300000000000 18.1435999999999993
  4.5134200000000000  3.9114900000000001 18.2500999999999998
  8.2302000000000000  6.2195600000000004 18.2315000000000005
  0.6106700000000000  6.1773499999999997 18.0446999999999989
  3.2007800000000000  6.0531699999999997 18.2162000000000006
  5.7273300000000003  6.1560600000000001 18.2133000000000003
  9.5784699999999994  8.3770100000000003 18.1422999999999988
  1.8525499999999999  8.3936799999999998 18.1171000000000006
  4.4120600000000003  8.4643899999999999 18.1642000000000010
  6.9316700000000004  8.5175699999999992 18.1721000000000004
  5.7381900000000003  0.2697510000000000 20.2808999999999990
  8.1629600000000000  0.3728130000000000 20.3418999999999990
  0.6515370000000000  0.3224990000000000 20.1061000000000014
  3.1039900000000000  0.3972990000000000 20.1869000000000014
  6.8514299999999997  2.5084900000000001 20.1780000000000008
  9.5104100000000003  2.6288999999999998 20.3438000000000017
  1.8536400000000000  2.6079300000000001 20.2734999999999985
  4.3513900000000003  2.5543000000000000 20.3800999999999988
  8.1343599999999991  4.7152799999999999 20.1595000000000013
  0.6197630000000000  4.7932300000000003 20.0805000000000007
  3.0790799999999998  4.7400399999999996 20.3064000000000000
  5.6427800000000001  4.7472000000000003 20.4161000000000001
  9.4790200000000002  6.9323100000000002 20.1751000000000005
  1.8929000000000000  6.9404100000000000 20.1297999999999995
  4.3270799999999996  6.9461000000000004 20.1328999999999994
  6.9795299999999996  7.0065200000000001 20.1408999999999985
  5.3685200000000002  2.2248600000000001  0.9651370000000000
  5.8588199999999997  2.4262199999999998  0.2089320000000000
  5.1287799999999999  1.3075100000000000  1.0371200000000000
  7.1232499999999996  2.6614499999999999  3.1984699999999999
  7.8735299999999997  3.2189100000000002  2.8957199999999998
  6.5233400000000001  2.5949200000000001  2.4214500000000001
  4.9889400000000004  2.1536300000000002 23.5753999999999984
  9.0669599999999999  0.8508060000000000  3.7948200000000001
  4.6173400000000004  1.5048800000000000 23.0128999999999984
  9.0216899999999995  7.5064299999999999 24.5349000000000004
  9.8878699999999995  7.6157399999999997 24.1274000000000015
  8.6495800000000003  6.7919799999999997 23.9477000000000011
  3.9100600000000001  4.2847600000000003 27.2582999999999984
  3.3056999999999999  4.6288600000000004 27.9498999999999995
  4.5531199999999998  4.9693199999999997 27.0875999999999983
  0.9971190000000000  1.3056700000000001 24.8811000000000000
  0.3209600000000000  8.2555999999999994 27.5690999999999988
  0.5770120000000000  1.3128000000000000 25.7523000000000017
  6.5975599999999996  6.7568099999999998  1.8813000000000000
  7.1472100000000003  5.4199000000000002  5.8590999999999998
  7.2029500000000004  7.2124300000000003  1.2875099999999999
  9.6242800000000006  8.6507900000000006 27.9719000000000015
  1.7323700000000000  2.2227700000000001  0.3249640000000000
  9.0903100000000006  7.7806699999999998 27.9564999999999984
  5.1163499999999997 -0.1068280000000000 27.4673000000000016
  4.8574099999999998  0.2087710000000000 28.3807000000000009
  0.6034350000000001  3.4639099999999998 27.2162000000000006
  0.5130390000000000  2.5701999999999998 27.7015999999999991
  9.7124799999999993  2.3332099999999998 27.7496000000000009
  3.6939700000000002  5.2974800000000002  7.2979099999999999
  1.2339300000000000  1.5277099999999999 29.9821999999999989
  1.0922799999999999  1.9496100000000001 29.0579999999999998
  8.5480199999999993  0.7077740000000000  1.0893600000000001
  0.0888304000000000  3.5315599999999998 23.5337999999999994
  0.5902630000000000  3.5472800000000002 22.6875999999999998
  0.1912780000000000  2.6142599999999998 23.7503999999999991
  7.3212799999999998  5.3565199999999997  6.8313400000000000
  1.8975200000000001  1.7504100000000000 25.0628999999999991
  7.0375899999999998  6.2030700000000003  7.1888399999999999
 10.0786999999999995  6.7673800000000002  2.9095800000000001
  0.8420360000000000  6.5484799999999996  3.1311300000000002
 10.0126000000000008  6.8155000000000001  1.9022300000000001
  8.8951300000000000  0.0223286000000000  4.3023300000000004
  6.1646200000000002  7.4910300000000003  2.3040600000000002
  9.1130499999999994  8.1212800000000005  3.5801599999999998
  2.2643000000000000  5.3555599999999997 29.4315999999999995
  1.3533999999999999  5.4526000000000003 29.7631000000000014
  3.7885599999999999  0.2599510000000000 29.7395999999999994
  3.0215700000000001  0.8281300000000000 29.7273999999999994
  3.5930700000000000  8.3393400000000000 30.3807000000000009
  5.5744899999999999  7.4955200000000000  7.5742599999999998
  4.7718999999999996  7.2601500000000003  7.1007800000000003
  5.8589799999999999  8.3453199999999992  7.1085200000000004
  0.6118980000000001  4.8615899999999996 26.2229999999999990
  0.7187290000000000  4.5217000000000001 25.3069999999999986
  9.7699700000000007  5.1544400000000001 26.2632000000000012
  2.8531800000000000  5.9533300000000002 -0.1835500000000000
  3.1708599999999998  5.8554800000000000  6.6850199999999997
  2.6102099999999999  6.3730099999999998  7.3400800000000004
  7.4323499999999996  5.1285699999999999  0.9981700000000000
  8.1276200000000003  4.8541699999999999  0.4061470000000000
  7.6771799999999999  4.1863599999999996 29.9284999999999997
  5.9111399999999996  0.4342370000000000 27.3189999999999991
 10.0160000000000000  6.5243200000000003  0.0987137000000000
  9.1851099999999999  6.0172699999999999  0.0808458000000000
  9.9566199999999991  7.3403600000000004 29.7369999999999983
  8.0661500000000004  8.8141099999999994  0.4792840000000000
  8.6442200000000007  0.1072510000000000 29.8566000000000003
  7.9696400000000001  2.7728500000000000  7.3911199999999999
  7.3479299999999999  3.4890800000000000  7.2594300000000000
  1.4861000000000000  8.5736799999999995 24.0281999999999982
  1.5639200000000000  7.7419300000000000 23.4588999999999999
  1.9970000000000001  8.3949800000000003  6.1756099999999998
  1.1976899999999999  7.9724800000000000 22.5607000000000006
  2.7794599999999998  8.7613099999999999  5.7542900000000001
  8.7870000000000008  2.9777999999999998  6.8255100000000004
  2.4318900000000001  0.4565860000000000  4.9416099999999998
  9.7453800000000008  5.5703399999999998  7.7301200000000003
  8.7963699999999996  5.5834099999999998  7.3031800000000002
 10.1132000000000009  6.4298900000000003  7.5205099999999998
 10.0625000000000000  3.6627000000000001  6.0200199999999997
 -0.0822253000000000  4.3685299999999998  6.7494800000000001
  6.9139099999999996  2.7686099999999998 28.0418999999999983
  6.4560300000000002  3.2178000000000000 28.7717999999999989
  2.5039199999999999  1.8690899999999999  2.6217800000000002
  3.0482499999999999  1.6800100000000000  3.4413800000000001
  0.8728230000000000  3.4318200000000001  6.1653300000000000
  3.3096000000000001  2.5196900000000002  3.7862900000000002
  2.8852300000000000  3.2757900000000002  1.1123300000000000
  2.7778499999999999  4.0345300000000002  0.5430480000000000
  3.8389600000000002  3.0528300000000002  1.1027300000000000
  9.6782199999999996  8.4764400000000002  5.7068000000000003
 10.1094000000000008  8.2494800000000001  6.5450200000000001
  7.8880299999999997  1.5897500000000000 25.9101999999999997
  9.4450000000000003 -0.2338110000000000  7.2370599999999996
  7.9601300000000004  1.6081300000000001 26.8802999999999983
  8.4797300000000000  0.8488110000000000 27.1707000000000001
  3.3548600000000000  7.2346899999999996 24.0774000000000008
  2.3103400000000001  2.7561900000000001  6.5665899999999997
  2.3783400000000001  1.7469600000000001  6.5060599999999997
  2.5272299999999999  2.8666399999999999  7.5390899999999998
  3.6008100000000001  6.5688199999999997  1.1572400000000000
  3.1402999999999999  6.5918999999999999  2.0068100000000002
  4.6889599999999998  0.6208030000000000  3.3875000000000002
  5.5862100000000003  0.2310880000000000  3.4442499999999998
  7.6269900000000002  0.5051050000000000  5.3113700000000001
  6.0276699999999996  0.5577760000000000  4.2146299999999997
  7.0764500000000004  0.5222610000000000  6.1185600000000004
  4.4651399999999999  6.2741199999999999  1.3228899999999999
  7.2431599999999996  1.4199400000000000  6.5023700000000000
  2.5651999999999999  6.7440499999999997  3.6671399999999998
  2.4934599999999998  7.4452100000000003  4.3600300000000001
  2.7609900000000001  5.9303600000000003  4.2382400000000002
  5.4003399999999999  4.7169699999999999 22.5557000000000016
  5.5948099999999998  3.3585099999999999 28.4011999999999993
  2.3070100000000000  7.3027800000000003 28.0486000000000004
  1.8416699999999999  7.3772399999999996 27.2037000000000013
  7.4543400000000002  6.3426400000000003 26.7444999999999986
  1.6671199999999999  6.5412499999999998 26.7418000000000013
  8.4514399999999998  6.2584600000000004 26.8489000000000004
  6.2752499999999998  4.7362299999999999 22.9547999999999988
  8.7049099999999999  6.7000599999999997 25.9954000000000001
  3.8505300000000000  1.9012300000000000 25.9830000000000005
  4.0326399999999998  1.1427300000000000 26.5828999999999986
  3.9415499999999999  2.7598799999999999 26.5377000000000010
  4.5661100000000001  2.0831100000000000 24.4358000000000004
  9.3802599999999998  5.0740600000000002  3.4238300000000002
  9.1801999999999992  4.1649200000000004  3.6269100000000001
  8.0020000000000007  0.4934520000000000 23.9751000000000012
  9.7686200000000003  4.0228200000000003  4.4609300000000003
  7.7906300000000002  1.4722000000000000 24.0738999999999983
  6.9512099999999997  1.7346999999999999 23.7283000000000008
  4.1639799999999996  6.6510899999999999 24.2729999999999997
  4.2643500000000003  6.2553900000000002 23.4195999999999991
  5.0554100000000002  3.7937699999999999 22.7483000000000004
  5.6501799999999998  6.2423000000000002 26.6799999999999997
  4.9948199999999998  6.5059899999999997 25.9879999999999995
  5.5824600000000002  7.0752300000000004 27.2207000000000008
  9.6336300000000001  1.7711600000000001  1.9252100000000001
  9.6693099999999994  2.7314600000000002  2.0740300000000000
  0.0831916000000000  1.5126900000000001  1.1845600000000001
  3.7189100000000002  4.1965500000000002  4.2976799999999997
  4.7144199999999996  4.3239000000000001  4.3768399999999996
  3.4760300000000002  3.7919200000000002  5.1196299999999999
  8.1458800000000000  5.2777099999999999 23.2303999999999995
  8.3036899999999996  5.5310300000000003 22.3079999999999998
  8.8526399999999992  4.5813199999999998 23.3534000000000006
  6.5340400000000001  5.2163500000000003  4.2592900000000000
  6.5223199999999997  6.0031900000000000  3.7075399999999998
  6.6514199999999999  4.4092399999999996  3.7959999999999998
