Cu  O  H  O  H  O  H  O  H  O  H  O  H  O  H  O  H  O  H  O  H  O  H  O  H  O  H  O  H  O  H  O  H  O  H  O  H  O  H  O  H  O  H  O  H  O  H  O  H  O  H  O  H  O  H  O  H  O  H  O  H  O  H  O  H  O  H  O  H  O  H  O  H  O  H  O  H  O  H  O  H  O  H  O  H  O  H  O  H  O  H  O  H  O  H  O  H  O  H  O  H 
 1.0000000000000000
    10.1403771778044529    0.0000000000000000    0.0000000000000000
     0.0000000000000000    8.7818242399346058    0.0000000000000000
     0.0000000000000000    0.0000000000000000   30.1311271579000000
 Cu  O   H   O   H   O   H   O   H   O   H   O   H   O   H   O   H   O   H   O   H   O   H   O   H   O   H   O   H   O   H   O   H   O   H   O   H   O   H   O   H   O   H   O   H   O   H   O   H   O   H   O   H   O   H   O   H   O   H   O   H   O   H   O   H   O   H   O   H   O   H   O   H   O   H   O   H   O   H   O   H   O   H   O   H   O   H   O   H   O   H   O   H   O   H   O   H   O   H   O   H  
  96   1   2   1   2   1   2   1   2   1   2   1   2   1   2   1   2   1   2   1   2   1   2   1   2   1   2   1   2   1   2   1   1   1   2   1   2   1   3   1   2   1   2   1   2   1   1   1   2   1   2   1   2   1   2   1   2   1   1   1   2   1   3   1   2   1   2   1   2   1   2   1   2   1   2   1   2   1   2   1   2   1   2   1   4   1   2   1   1   1   2   1   2   1   2   1   2   1   2   1   2
Cartesian
  6.9593499999999997  1.1433599999999999  9.8294099999999993
  9.3700200000000002  1.2827000000000000  9.9636700000000005
  1.8289299999999999  1.2654600000000000  9.7753300000000003
  4.1306399999999996  1.2150000000000001  9.7690400000000004
  8.2058900000000001  3.4057200000000001  9.9367300000000007
  0.6765790000000000  3.3506800000000001  9.9699200000000001
  3.1349900000000002  3.3893499999999999  9.6953200000000006
  5.7011099999999999  3.3332899999999999  9.7349800000000002
  9.3615899999999996  5.6323999999999996  9.8132999999999999
  1.6797200000000001  5.5747799999999996  9.5165799999999994
  4.3529200000000001  5.6716800000000003  9.7446900000000003
  6.8087400000000002  5.5083700000000002  9.9671400000000006
  0.4632930000000000  7.7791499999999996 10.0024999999999995
  3.0799400000000001  7.6882500000000000  9.9500799999999998
  5.6622399999999997  7.8984699999999997  9.9644800000000000
  8.1641399999999997  7.6584599999999998  9.9726800000000004
  5.5620099999999999  1.8520399999999999 11.8864999999999998
  8.0936500000000002  1.9230799999999999 12.0089000000000006
  0.5666760000000000  1.8887200000000000 11.8922000000000008
  3.0113900000000000  1.8858299999999999 11.9722000000000008
  6.8436800000000000  3.9063900000000000 11.9374000000000002
  9.4358100000000000  3.9294899999999999 11.9391999999999996
  1.8976599999999999  4.1405200000000004 11.9532000000000007
  4.3460599999999996  4.0865000000000000 11.9000000000000004
  8.1736799999999992  6.1248800000000001 11.9398999999999997
  0.5032799999999999  6.1832300000000000 11.9270999999999994
  3.1799599999999999  6.2305400000000004 12.0208999999999993
  5.5651799999999998  6.2760800000000003 12.0746000000000002
  9.3364499999999992  8.5684900000000006 12.0686999999999998
  1.8172800000000000  8.5169400000000000 11.9024000000000001
  4.3394300000000001  8.4050100000000008 11.9517000000000007
  6.8795299999999999  8.5034100000000006 12.0222999999999995
  5.7039600000000004  0.3659090000000000 14.0305999999999997
  8.2390600000000003  0.3659090000000000 14.0305999999999997
  0.6337739999999999  0.3659090000000000 14.0305999999999997
  3.1688700000000001  0.3659090000000000 14.0305999999999997
  6.9715100000000003  2.5613700000000001 14.0305999999999997
  9.5066000000000006  2.5613700000000001 14.0305999999999997
  1.9013199999999999  2.5613700000000001 14.0305999999999997
  4.4364200000000000  2.5613700000000001 14.0305999999999997
  8.2390600000000003  4.7568200000000003 14.0305999999999997
  0.6337739999999999  4.7568200000000003 14.0305999999999997
  3.1688700000000001  4.7568200000000003 14.0305999999999997
  5.7039600000000004  4.7568200000000003 14.0305999999999997
  9.5066000000000006  6.9522800000000000 14.0305999999999997
  1.9013199999999999  6.9522800000000000 14.0305999999999997
  4.4364200000000000  6.9522800000000000 14.0305999999999997
  6.9715100000000003  6.9522800000000000 14.0305999999999997
  6.9715100000000003  1.0977300000000001 16.1005000000000003
  9.5066000000000006  1.0977300000000001 16.1005000000000003
  1.9013199999999999  1.0977300000000001 16.1005000000000003
  4.4364200000000000  1.0977300000000001 16.1005000000000003
  8.2390600000000003  3.2931800000000000 16.1005000000000003
  0.6337739999999999  3.2931800000000000 16.1005000000000003
  3.1688700000000001  3.2931800000000000 16.1005000000000003
  5.7039600000000004  3.2931800000000000 16.1005000000000003
  9.5066000000000006  5.4886400000000002 16.1005000000000003
  1.9013199999999999  5.4886400000000002 16.1005000000000003
  4.4364200000000000  5.4886400000000002 16.1005000000000003
  6.9715100000000003  5.4886400000000002 16.1005000000000003
  0.6337739999999999  7.6840999999999999 16.1005000000000003
  3.1688700000000001  7.6840999999999999 16.1005000000000003
  5.7039600000000004  7.6840999999999999 16.1005000000000003
  8.2390600000000003  7.6840999999999999 16.1005000000000003
  5.8139799999999999  1.8350700000000000 18.3141999999999996
  8.2926500000000001  1.8590599999999999 18.1116999999999990
  0.6978090000000000  1.9037100000000000 18.0790000000000006
  3.2526899999999999  1.8240499999999999 18.1143000000000001
  6.9097600000000003  4.0941299999999998 18.2548999999999992
  9.3816199999999998  4.0598099999999997 18.0899999999999999
  1.9978499999999999  3.9796100000000001 18.2605000000000004
  4.3056799999999997  4.0387500000000003 18.2129000000000012
  8.1163200000000000  6.4000700000000004 18.1456000000000017
  0.5752880000000000  6.2542600000000004 18.0749999999999993
  3.0939500000000000  6.2186300000000001 18.1474000000000011
  5.6453199999999999  6.2158899999999999 18.1006999999999998
  9.5296299999999992  8.4447200000000002 18.2212999999999994
  1.8740900000000000  8.4014900000000008 18.2713000000000001
  4.3655200000000001  8.3406099999999999 18.2201999999999984
  6.9920900000000001  8.5246999999999993 18.1173000000000002
  5.8168600000000001  0.4469260000000000 20.3128999999999991
  8.2051800000000004  0.5784000000000000 20.2598999999999982
  0.6596200000000000  0.4071960000000000 20.2241999999999997
  3.3350300000000002  0.5518920000000000 20.2188000000000017
  6.9654900000000000  2.6637800000000000 20.2937000000000012
  9.3772199999999994  2.6721400000000002 20.1037999999999997
  1.7976700000000001  2.5808800000000001 20.2998000000000012
  4.5019999999999998  2.7578999999999998 20.2098000000000013
  8.1679099999999991  4.9447700000000001 20.1309000000000005
  0.5212590000000000  4.9062400000000004 20.0746000000000002
  3.0308299999999999  4.8263900000000000 20.2893000000000008
  5.5882300000000003  4.9684200000000001 20.1868000000000016
  9.3215500000000002  7.0358499999999999 20.1744999999999983
  1.7644100000000000  6.9455700000000000 20.0982999999999983
  4.2732999999999999  7.0431900000000001 20.2023000000000010
  6.8248800000000003  7.0330399999999997 20.2109999999999985
  2.4677099999999998  7.7214099999999997 26.3486000000000011
  2.7690800000000002  8.1285299999999996 27.1835999999999984
  3.3166099999999998  7.2512200000000000 26.0625000000000000
  9.9798899999999993  8.2327700000000004 23.2576999999999998
 10.0967000000000002  8.4231999999999996 22.3064000000000000
  0.4104000000000000  7.4721200000000003 23.5629999999999988
  6.2292399999999999  4.6250799999999996 30.0996999999999986
  5.1494000000000000  6.3560100000000004 24.8889999999999993
  5.9011399999999998  3.7472400000000001 30.1835999999999984
  1.3281900000000000  0.9511670000000000  2.9858799999999999
  1.6622300000000001  0.7687740000000000  2.0937199999999998
  0.5823310000000000  1.5193300000000001  2.9082699999999999
  8.0996000000000006  2.9602300000000001 23.4905000000000008
  8.3882300000000001  3.8212400000000000 23.8272000000000013
  8.6075999999999997  2.7602500000000001 22.6854000000000013
  2.6212300000000002  5.5822399999999996  1.9779500000000001
  4.8390599999999999  2.7576600000000000  4.1979100000000003
  2.0731400000000000  6.2448699999999997  2.4486900000000000
  8.7690999999999999  7.1943299999999999  6.9342199999999998
  2.9742999999999999  1.0699200000000000  4.0252699999999999
  8.2247199999999996  7.7675000000000001  6.3712999999999997
  5.4795600000000002  3.0592400000000000  3.5106199999999999
  2.7422599999999999  3.4593200000000000  1.3879900000000001
  5.3989099999999999  3.9754100000000001  3.2180700000000000
  7.9575300000000002  4.3764700000000003  6.7849500000000003
  7.9584700000000002  4.0255099999999997  7.6855500000000001
  5.5863300000000002  3.6924299999999999  6.8881500000000004
  4.7595200000000002  3.8844799999999999  6.4035299999999999
  4.2297200000000004  4.3687899999999997  7.0019000000000000
  1.0075099999999999  4.5159599999999998  2.8735700000000000
  2.7493400000000001  2.6999399999999998  0.8286670000000000
  2.4023599999999998  2.9998399999999998 30.0901999999999994
  6.7355200000000002  2.4250099999999999  4.2556700000000003
  1.4478300000000000  7.5061700000000000  6.0761799999999999
  1.4899600000000000  7.4928800000000004  5.0336900000000000
  0.4998170000000000  7.6801399999999997  6.3518699999999999
  3.9210300000000000  0.8372280000000000  3.9833300000000000
  2.7165300000000001  5.9861899999999997  1.0779799999999999
  4.1889000000000003  0.7309900000000000  4.9434699999999996
  5.4180099999999998  1.9915700000000001 29.7984000000000009
  5.6938000000000004  1.1273200000000001  0.1506420000000000
  4.5437599999999998  1.9844400000000000  0.1255450000000000
  4.9217199999999997  6.5890000000000004 25.8125000000000000
  8.8777399999999993  7.6256899999999996  7.7512600000000003
  5.7012900000000002  7.1967800000000004 26.0654000000000003
  7.2643700000000004  0.8927410000000000  6.6361499999999998
  7.4816300000000000  1.6118200000000000  6.0241300000000004
  0.8921930000000000  0.0951506000000000 30.1175999999999995
  1.6523300000000001  0.5039630000000000 29.6301999999999985
  0.1168400000000000  0.6568810000000000 29.9085999999999999
  2.4667800000000000  6.8595600000000001 23.4989999999999988
  2.7613400000000001  6.7888299999999999 22.5443999999999996
  2.7799600000000000  7.7626600000000003 23.7489999999999988
  2.9664299999999999  4.2150699999999999 24.1184000000000012
  3.9131300000000002  3.9653000000000000 23.8614999999999995
  2.9853299999999998  5.1774399999999998 24.1317999999999984
  7.3906299999999998  1.2740300000000000  7.5597200000000004
  0.2551230000000000  4.0081100000000003  3.1373099999999998
  9.7385800000000007  4.1924200000000003  2.4515799999999999
  8.1979799999999994  0.1101100000000000 28.3761000000000010
  8.3710900000000006  8.1434800000000003 27.7591999999999999
  7.7640799999999999  8.2848400000000009 27.0185999999999993
  8.2577200000000008  5.2335399999999996  7.0023799999999996
  8.6092800000000000  7.0331200000000003  3.6736300000000002
  7.8727099999999997  7.1735699999999998  4.3675899999999999
  8.3946600000000000  6.2732400000000004  3.0474199999999998
  7.7575000000000003  2.4651500000000000  4.4308500000000004
  7.8285999999999998  3.3875899999999999  4.7728000000000002
  2.9143699999999999  0.6335160000000000 24.0823000000000000
  2.6818800000000000  0.4485860000000000 25.0049999999999990
  9.9937100000000001  0.9551210000000000 24.5834000000000010
 10.1011000000000006  1.2434400000000001 25.5374000000000017
  9.2030999999999992  6.9599099999999998 29.0677999999999983
  9.2664700000000000  1.7034300000000000 25.7069000000000010
  9.7647200000000005  6.5405800000000003 29.7277999999999984
  3.8044199999999999  1.0310299999999999 24.1600000000000001
  0.2744380000000000  7.2568900000000003 29.8520000000000003
  5.5922599999999996  0.1436060000000000  1.7628800000000000
  4.9940499999999997  0.3619150000000000  2.5461000000000000
  6.5392400000000004  0.2141040000000000  2.1316000000000002
  5.7531400000000001  2.0557900000000000 26.8366000000000007
  6.0610299999999997  2.9544100000000002 26.7293999999999983
  1.7634200000000000  0.4344040000000000  7.1759700000000004
  1.2378300000000000  1.1558500000000000  7.5934699999999999
  8.5337300000000003  2.2856700000000001 29.4587000000000003
  8.6820599999999999  1.3590899999999999 29.7153999999999989
  5.4811399999999999  1.9934600000000000 27.8493999999999993
  8.5198999999999998  1.3511500000000001  0.5153080000000000
  2.3851300000000002  2.5156200000000002 26.5140999999999991
  2.5098600000000002  3.1655099999999998 25.8173999999999992
  1.4726300000000001  2.1221500000000000 26.2662000000000013
  5.4018899999999999  6.0901300000000003  3.3160099999999999
  5.1290600000000000  5.5271499999999998  2.5630899999999999
  4.6470900000000004  6.7302700000000000 29.2419000000000011
  4.2346899999999996  5.6129199999999999  2.4849199999999998
  4.3375500000000002  7.5836699999999997 29.5743000000000009
  4.8597200000000003  7.7798100000000003  0.2514030000000000
  4.6384600000000002  5.2834399999999997 27.4067000000000007
  3.1202999999999999  0.8936930000000000 28.3673000000000002
  3.2101099999999998  1.2303700000000000 27.5157999999999987
  3.8828499999999999  0.3572100000000000 28.7099000000000011
  5.5510400000000004  5.5891900000000003 23.0655999999999999
  6.4502600000000001  5.8778899999999998 23.1934000000000005
  5.2949500000000000  5.5890700000000004  5.2831999999999999
  5.2752800000000004  6.5210499999999998  4.9417499999999999
  1.4889300000000001  1.8439800000000000 22.8419999999999987
  5.3170700000000002  7.1919000000000004  5.6445800000000004
  1.2488699999999999  2.6760799999999998 22.4525000000000006
  5.6598600000000001  4.7002499999999996 22.8595000000000006
  1.6930099999999999  3.3778700000000002 23.0274999999999999
  5.3770300000000004  2.2815799999999999 23.6169000000000011
  6.3339499999999997  2.3703699999999999 23.8064999999999998
  5.2363000000000000  2.0621100000000001 22.6494000000000000
  1.0364700000000000  7.1793600000000000  3.4031199999999999
  1.3912100000000001  1.9883800000000000  7.0708000000000002
  8.3858599999999992  7.9588500000000000 23.3506999999999998
  7.3313499999999996  7.8583800000000004 23.3909999999999982
  2.1239699999999999  3.6627100000000001 27.9233000000000011
  6.9448400000000001  7.9089600000000004 22.5153999999999996
  1.5617200000000000  3.9784400000000000 28.7254000000000005
  0.8744880000000000  8.0200600000000009  2.9948999999999999
  1.9496000000000000  4.8523800000000001 28.8092000000000006
  2.1478299999999999  5.2150499999999997  7.2397799999999997
  1.6422000000000001  4.5271400000000002  6.8522699999999999
  1.8621399999999999  6.0426599999999997  6.7438700000000003
  5.9512999999999998  5.1464800000000004  0.7394180000000000
  4.6949699999999996  8.2728699999999993  7.3787900000000004
  4.9523799999999998  8.5788100000000007  6.5049700000000001
  7.9137100000000000  4.6194699999999997  1.2721499999999999
  5.7443000000000000  0.4072800000000000  6.7769500000000003
  8.5375499999999995  5.2455299999999996  1.6667700000000001
  9.0181100000000001  5.7501100000000003  0.9762970000000000
  4.2776500000000004  4.9338499999999996 28.2304999999999993
  5.0603999999999996  4.6772200000000002 28.7575000000000003
  0.1034290000000000  6.7866499999999998  3.5954000000000002
 10.0764999999999993  6.5665399999999998 25.8184000000000005
  9.4821100000000005  6.9782299999999999 26.3881000000000014
  0.7665080000000000  7.0190000000000001 26.1002000000000010
  6.7496299999999998  8.7323900000000005 25.8268999999999984
  6.3481399999999999  0.8615170000000000 25.8633999999999986
  6.7880000000000003  8.4642599999999995 24.8586999999999989
  8.9852699999999999  3.7161300000000002 28.5152999999999999
  8.4921600000000002  4.5405499999999996 28.6309000000000005
  9.9457500000000003  3.8839600000000001 28.5481000000000016
  8.4665499999999998  0.7970429999999999  2.3950399999999998
  8.4320500000000003  1.3795599999999999  3.2119200000000001
  8.6583699999999997  8.7083999999999993  2.7065399999999999
  0.5701740000000000  3.2244799999999998  5.8579499999999998
  9.8335200000000000  3.3841700000000001  6.2116600000000002
  0.4894570000000000  3.4765500000000000  4.9214300000000000
