Cu O  H  O  H  O  H  O  H  O  H  O  H  O  H  O  H  O  H  O  H  O  H  O  H  O  H  O  H  O  H  O  H  O  H  O  H  O  H  O  H  O  H  O  H  O  H  O  H  O  H  O  H  O  H  O  H  O  H  O  H  O  H  O  H  O  H  O  H  O  H  O  H  O  H  O  H  O  H  O  H  O  H  O  H  O  H  O  H  O  H  O  H  O  H  O  H  O  H  O  H 
 1.0000000000000000
    10.1403771778044529    0.0000000000000000    0.0000000000000000
     0.0000000000000000    8.7818242399346058    0.0000000000000000
     0.0000000000000000    0.0000000000000000   30.1311271579000000
 Cu  O   H   O   H   O   H   O   H   O   H   O   H   O   H   O   H   O   H   O   H   O   H   O   H   O   H   O   H   O   H   O   H   O   H   O   H   O   H   O   H   O   H   O   H   O   H   O   H   O   H   O   H   O   H   O   H   O   H   O   H   O   H   O   H   O   H   O   H   O   H   O   H   O   H   O   H   O   H   O   H   O   H   O   H   O   H   O   H   O   H   O   H   O   H   O   H   O   H   O   H  
  96   1   2   1   2   1   2   1   2   1   2   1   2   1   2   1   2   1   2   1   2   1   2   1   2   1   2   1   2   1   2   1   1   1   2   1   2   1   3   1   2   1   2   1   2   1   1   1   2   1   2   1   2   1   2   1   2   1   1   1   2   1   3   1   2   1   2   1   2   1   2   1   2   1   2   1   2   1   2   1   2   1   2   1   4   1   2   1   1   1   2   1   2   1   2   1   2   1   2   1   2
Cartesian
  6.8977899999999996  1.0620499999999999  9.9164600000000025
  9.3515200000000007  1.0775300000000001  9.8167799999999996
  1.7281599999999997  1.0248699999999999  9.8735099999999996
  4.2841800000000001  1.0347000000000000  9.7019800000000025
  8.0885099999999994  3.1952199999999999  9.7813900000000018
  0.4760230000000000  3.2092700000000001  9.9847100000000015
  3.0270600000000001  3.2348400000000002  9.9582800000000020
  5.5602400000000003  3.2599900000000002 10.0332000000000026
  9.5214200000000009  5.3782699999999997 10.0318000000000023
  1.7733500000000000  5.5140900000000004  9.9641699999999993
  4.3477399999999999  5.2187400000000004  9.9526200000000014
  6.9539499999999999  5.5356399999999999  9.9353300000000004
  0.4890260000000000  7.6355100000000000  9.8359800000000011
  3.0689199999999999  7.5747299999999997  9.7791999999999994
  5.6014999999999997  7.6308499999999997  9.9342100000000020
  8.2145299999999999  7.5707099999999992  9.9179400000000015
  5.5736600000000003  1.6691699999999998 11.9137000000000004
  8.1723999999999997  1.8094200000000000 12.0391999999999992
  0.6028570000000000  1.7541999999999998 12.0374999999999996
  3.0749200000000001  1.8222100000000001 11.9445999999999994
  6.9730299999999996  3.9771299999999998 12.0718000000000014
  9.3754299999999997  4.0415200000000002 11.9878000000000000
  1.7865300000000000  3.9428399999999999 11.9522000000000013
  4.3922699999999999  4.0697400000000004 11.9642999999999997
  8.2604199999999999  6.1869399999999999 11.9621999999999993
  0.6015239999999999  6.1664800000000000 11.9365000000000023
  3.2206999999999995  6.2450500000000000 11.9969000000000019
  5.7766200000000003  6.1505700000000001 11.9298000000000020
  9.4900900000000004  8.4215300000000006 11.9260000000000002
  2.0031300000000001  8.3655500000000007 11.9696000000000016
  4.4254400000000000  8.4192300000000007 11.7593999999999994
  6.9392199999999997  8.2945200000000003 11.9567000000000014
  5.7039600000000004  0.3659089999999999 14.0306000000000015
  8.2390600000000003  0.3659089999999999 14.0306000000000015
  0.6337739999999999  0.3659089999999999 14.0306000000000015
  3.1688699999999996  0.3659089999999999 14.0306000000000015
  6.9715100000000003  2.5613700000000001 14.0306000000000015
  9.5066000000000006  2.5613700000000001 14.0306000000000015
  1.9013199999999999  2.5613700000000001 14.0306000000000015
  4.4364200000000000  2.5613700000000001 14.0306000000000015
  8.2390600000000003  4.7568199999999994 14.0306000000000015
  0.6337739999999999  4.7568199999999994 14.0306000000000015
  3.1688699999999996  4.7568199999999994 14.0306000000000015
  5.7039600000000004  4.7568199999999994 14.0306000000000015
  9.5066000000000006  6.9522799999999991 14.0306000000000015
  1.9013199999999999  6.9522799999999991 14.0306000000000015
  4.4364200000000000  6.9522799999999991 14.0306000000000015
  6.9715100000000003  6.9522799999999991 14.0306000000000015
  6.9715100000000003  1.0977300000000001 16.1005000000000003
  9.5066000000000006  1.0977300000000001 16.1005000000000003
  1.9013199999999999  1.0977300000000001 16.1005000000000003
  4.4364200000000000  1.0977300000000001 16.1005000000000003
  8.2390600000000003  3.2931800000000000 16.1005000000000003
  0.6337739999999999  3.2931800000000000 16.1005000000000003
  3.1688699999999996  3.2931800000000000 16.1005000000000003
  5.7039600000000004  3.2931800000000000 16.1005000000000003
  9.5066000000000006  5.4886400000000002 16.1005000000000003
  1.9013199999999999  5.4886400000000002 16.1005000000000003
  4.4364200000000000  5.4886400000000002 16.1005000000000003
  6.9715100000000003  5.4886400000000002 16.1005000000000003
  0.6337739999999999  7.6840999999999999 16.1005000000000003
  3.1688699999999996  7.6840999999999999 16.1005000000000003
  5.7039600000000004  7.6840999999999999 16.1005000000000003
  8.2390600000000003  7.6840999999999999 16.1005000000000003
  5.7731099999999991  1.8479600000000000 18.0784000000000020
  8.3276100000000000  1.9170499999999999 18.0775000000000041
  0.5486460000000000  1.8044600000000000 18.1875000000000000
  3.1034199999999998  1.9200399999999997 18.1139000000000010
  6.8770400000000000  4.0399000000000003 18.2352999999999987
  9.5072100000000006  4.0083799999999998 18.0884000000000036
  1.8786400000000001  4.0490100000000000 18.1713999999999984
  4.4307200000000000  4.0559399999999997 18.2284000000000042
  8.1683900000000005  6.2646400000000000 18.1870000000000012
  0.7246380000000000  6.2776100000000001 18.1797000000000004
  3.1566399999999994  6.2126999999999999 18.0935000000000024
  5.7149400000000004  6.1912399999999996 18.2085000000000008
  9.5588599999999992  8.3304399999999994 18.2314000000000007
  1.9027400000000001  8.4240700000000004 18.2161000000000044
  4.3061100000000003  8.4381699999999995 18.1325000000000038
  7.1091699999999989  8.5046800000000005 18.2289000000000030
  5.7170399999999999  0.4628830000000000 20.3228000000000044
  8.2577099999999994  0.5678449999999999 20.1216000000000008
  0.6488769999999999  0.4609929999999999 20.1967000000000034
  3.0930299999999997  0.4186230000000000 20.1304000000000016
  6.8613199999999992  2.6211199999999999 20.1373999999999995
  9.4891699999999997  2.7177799999999999 20.1503000000000014
  1.8379099999999999  2.6947899999999994 20.1156000000000041
  4.2644900000000003  2.4392700000000000 20.1095000000000006
  8.2118900000000004  4.8902200000000002 20.2556000000000012
  0.5005220000000000  4.9255199999999997 20.1523000000000039
  3.0968100000000001  4.8814900000000003 20.2071000000000041
  5.7493900000000000  4.9206799999999999 20.2896999999999998
  9.4586000000000006  7.1040199999999993 20.2039000000000044
  1.8584499999999999  7.0127699999999997 20.2728999999999999
  4.2158100000000003  6.9973200000000002 19.9990999999999985
  6.8623000000000003  6.9759200000000003 20.0972000000000008
  2.2707999999999999  7.3439699999999997 28.3803000000000019
  2.7184899999999996  7.3718100000000000 29.2585000000000051
  2.5804399999999998  6.5037399999999996 27.9180000000000028
  4.5860599999999998  3.7517399999999999  2.0363000000000007
  4.2055899999999999  3.1008599999999999  1.3807500000000001
  3.8916100000000000  3.9364599999999994  2.6903600000000005
  9.8680199999999996  1.8818299999999999 30.0009000000000050
  6.8347600000000002  7.0778299999999996 25.6660000000000004
  8.9933599999999991  1.6637900000000001  0.1773728421000045
  0.6706679999999999  4.4999399999999987 24.6965000000000003
  9.9469399999999997  4.2128899999999998 24.3617999999999988
  0.4604230000000000  5.3036799999999999 25.2943000000000033
  5.5194800000000006  8.2721800000000005 30.0440000000000005
  5.7461799999999998  7.3919800000000002  0.3456920000000000
  4.6035199999999996  8.4386200000000002  0.1656650000000000
  8.1030400000000000  4.2865799999999998 23.4438999999999993
  6.8875599999999988  2.9182199999999998  7.1922300000000003
  8.5119399999999992  4.0774800000000004 22.5463999999999984
  3.4236299999999997  7.3916899999999988  4.1102499999999997
  6.2361599999999999  2.2923800000000001 25.5916999999999994
  4.0839100000000004  8.0667600000000004  3.8120599999999998
  7.7349300000000003  3.2126899999999994  7.5593400000000006
  5.2811799999999991  3.4313799999999999  5.4790200000000011
  8.3873300000000004  2.7641600000000000  6.9969200000000011
  0.8252210000000000  4.4668199999999993 29.7123999999999988
  0.1892820000000000  3.7243499999999994 29.7539000000000016
  6.7395399999999999  5.7010500000000004  6.4920099999999996
  7.1918800000000003  6.5942800000000004  6.4980800000000007
  7.8679499999999996  6.6533199999999990  7.1558400000000004
  6.6106400000000001  4.5802199999999997 25.8552999999999997
  5.3457400000000002  2.5847899999999999  4.8992800000000001
  5.2256600000000004  2.7757900000000002  3.9580200000000003
  5.1177500000000000  4.8174299999999999  7.6891200000000008
  1.3848700000000000  6.6172199999999997 22.6381000000000014
  1.3214900000000001  5.9325299999999999 23.2894000000000041
  0.9653470000000000  7.3545199999999991 23.1797000000000004
  6.3506000000000000  1.3480000000000001 25.1873000000000040
  8.0555500000000002  5.2530099999999997 23.5400000000000027
  5.7632899999999996  0.7813259999999999 25.6571000000000033
  2.0792899999999999  2.4966599999999999  6.1902999999999997
  2.3278400000000001  2.9770899999999996  5.3754799999999996
  1.4341699999999999  1.8478100000000000  5.9349400000000001
  6.1229799999999992  6.5506200000000003 25.4339000000000048
  3.4677600000000002  7.3161699999999996  5.0532300000000001
  5.6577500000000001  6.9316100000000000 24.6946000000000012
  0.2222750000000000  4.8793199999999999  6.1859999999999999
  0.6191310000000000  4.0028300000000003  5.9373899999999997
  3.6213100000000003  1.5647500000000001  0.5116020000000000
  2.8525700000000001  1.4549300000000001  1.1110199999999999
  3.2086600000000001  2.0972300000000001 29.9043999999999990
  6.1623699999999992  5.9272400000000003  1.3187000000000000
  5.6269900000000002  5.2013100000000003  1.7668900000000001
  6.7343699999999993  6.2232300000000000  2.0392299999999999
  7.5819900000000002  7.3618799999999993 27.6876999999999995
  6.7345400000000000  7.7947100000000002 27.9737000000000045
  8.0453399999999995  7.8831399999999991 27.0231000000000030
  9.9117400000000000  4.5792900000000003  6.9487300000000003
  6.2339500000000001  3.7934399999999999 26.3873000000000033
  6.4046700000000003  3.8779400000000002 27.3617000000000026
 10.1204045778044520  0.1694630000000000 24.3552000000000035
  0.6408150000000000  0.0975009000000000 23.6317999999999984
  0.3854530000000000  0.5576790000000000 22.8175999999999988
  0.2873420000000000  5.2422199999999988 29.3820000000000050
  8.3038200000000000  7.7917199999999998  4.4292000000000007
  9.2188900000000000  7.6581099999999998  4.7269100000000002
  7.6771300000000000  7.3210400000000000  5.0934900000000001
  5.1196999999999990  4.7816500000000000  6.7381500000000001
  4.2264699999999999  5.1020099999999999  6.4745800000000004
  2.5359799999999999  3.0254500000000002 26.0346000000000011
  2.9596799999999996  3.9151499999999997 25.9281000000000041
  7.9150600000000004  0.7278420000000000 25.5242000000000004
  8.7597500000000004  0.2949020000000000 25.9360000000000035
  3.3527399999999998  2.1162399999999999 24.0646000000000022
  9.2321100000000005  0.9240890000000000 26.5366999999999997
  3.8494799999999998  2.1735699999999998 23.2176000000000009
  1.7076899999999997  3.2690600000000001 25.5092000000000034
  3.2185199999999998  2.1864300000000001 22.5049000000000028
  4.2191500000000000  0.5297630000000000 26.9514999999999993
  4.3722099999999999  0.3539060000000000 27.8761000000000010
  3.3867200000000000  0.1280857600653951 26.8262999999999998
  1.1600100000000000  1.2796600000000000  2.4653399999999999
  0.8509130000000000  0.5945109999999999  3.0843400000000001
  4.8508500000000003  6.0478100000000001 23.4650999999999996
  4.2073700000000001  6.8065100000000003 23.5496000000000016
  6.7250399999999990  4.5033000000000003 29.8009000000000022
  6.3255100000000004  3.7949999999999999 29.2383999999999986
  0.7481780000000000  2.0699200000000002  2.7546900000000005
  5.3943800000000000  3.7149200000000002 29.4605999999999995
  0.5187079999999999  8.3457200000000000  6.9621399999999998
  1.0271399999999999  8.4851899999999993  7.7426199999999996
  1.0585199999999999  7.7363299999999997  6.3685299999999998
  9.6514199999999999  3.8986200000000002  2.8244300000000000
  0.4372250000000000  4.0229400000000002  2.5092900000000000
  9.8405500000000004  6.1526899999999998 27.1903000000000041
  0.4080060000000000  4.3425000000000002  1.6190400000000000
 10.1078990778044524  6.3902299999999999 26.3541000000000025
  9.7924799999999994  7.2861799999999999 26.1539000000000037
  0.3807440000000000  7.3319400000000003 28.8412000000000006
  2.3761000000000001  6.5558300000000003  6.4969000000000010
  1.6232899999999999  5.8698799999999993  6.5533200000000003
  2.6873300000000002  6.6115500000000003  7.4031100000000007
  8.3264399999999998  6.8230300000000002 23.3384000000000036
  7.6735600000000002  7.5181399999999989 23.2162000000000006
  1.8480299999999998  4.1530500000000004  3.3475899999999998
  2.7336499999999999  4.2620199999999997  3.8664900000000006
  6.3273400000000004  0.3874580000000000  2.6526500000000000
  2.9041399999999995  5.2193899999999989  3.8093400000000002
  5.3644900000000000  0.4710739999999999  2.8546600000000000
  9.0957600000000003  6.8964100000000004 22.7039000000000044
  4.9405099999999997  0.8426290000000000  2.0955700000000004
  0.3644420000000000  1.7435499999999999 27.4005000000000045
  1.0874999999999999  2.3392599999999999 27.1723999999999997
  0.0950226000000000  1.9098800000000000 28.3007999999999988
  4.4179500000000003  1.5799900000000000  7.6875000000000000
  3.4437099999999998  6.6881800000000000 22.9806999999999988
  6.8686600000000002  2.2653699999999994 29.9817000000000036
  7.3087200000000001  1.6324600000000000  0.4421090000000000
  3.0126900000000001  3.1480199999999998 27.8343000000000025
  6.8383700000000003  0.8255320000000000  0.2874230000000000
  3.0831400000000002  3.3368799999999994 28.7840000000000025
  4.9844400000000002  0.9925609999999999  7.0624700000000011
  2.2711700000000001  3.9104399999999995 29.0411999999999999
  9.3199799999999993  1.8478699999999997  5.8037799999999997
  8.7189300000000003  1.5504300000000000  5.1287200000000004
  9.5748300000000004  0.9560520000000000  6.2409300000000005
  0.3987760000000000  1.5020100000000001  0.4627100000000000
  8.8351199999999999  8.3705900000000000  1.3039000000000001
  8.0326900000000006  8.3789899999999999  1.8624499999999999
  4.8824300000000003  3.6981699999999997 22.9799000000000007
  8.3025599999999997  7.9576599999999997  2.7613400000000006
  5.3820099999999993  4.5581399999999999 22.8045000000000044
  6.2567800000000009  4.2725299999999997 23.1693999999999996
  9.8068899999999992  6.9134900000000004 29.2859000000000052
  9.0587400000000002  7.3310799999999992 28.8922000000000025
  3.5541399999999999  1.8194200000000000  7.2589300000000003
  5.8731799999999996  0.0678883000000000 22.5557000000000016
  5.0495700000000001  8.2594200000000004 22.6224000000000025
  5.6346000000000007  0.7678750000000000 23.1603000000000030
  7.9162800000000004  2.8748699999999996  3.0904900000000000
  7.1889799999999999  2.8191600000000001  3.7651300000000005
  7.8061400000000001  2.1621000000000001  2.4670100000000001
  0.7375490000000000  7.7369899999999996  3.8742000000000005
  0.5400220000000000  6.8265300000000000  3.7487400000000006
  1.7540999999999998  7.7468399999999997  3.8677800000000002
  3.5105499999999998  5.3608599999999997 26.2916999999999987
  3.5306899999999999  5.9491800000000001 25.4516999999999989
  4.4496700000000002  5.1929299999999996 26.4714999999999989
  5.3483499999999990  8.4858399999999996  5.9146900000000002
  5.6550000000000002  0.2240070000000000  5.1648100000000001
  6.0359100000000003  7.7755500000000000  6.1941499999999996
