Cu  O  H  O  H  O  H  O  H  O  H  O  H  O  H  O  H  O  H  O  H  O  H  O  H  O  H  O  H  O  H  O  H  O  H  O  H  O  H  O  H  O  H  O  H  O  H  O  H  O  H  O  H  O  H  O  H  O  H  O  H  O  H  O  H  O  H  O  H  O  H  O  H  O  H  O  H  O  H  O  H  O  H  O  H  O  H  O  H  O  H  O  H  O  H  O  H  O  H  O  H 
 1.0000000000000000
    10.1403771778044529    0.0000000000000000    0.0000000000000000
     0.0000000000000000    8.7818242399346058    0.0000000000000000
     0.0000000000000000    0.0000000000000000   30.1311271579000000
 Cu  O   H   O   H   O   H   O   H   O   H   O   H   O   H   O   H   O   H   O   H   O   H   O   H   O   H   O   H   O   H   O   H   O   H   O   H   O   H   O   H   O   H   O   H   O   H   O   H   O   H   O   H   O   H   O   H   O   H   O   H   O   H   O   H   O   H   O   H   O   H   O   H   O   H   O   H   O   H   O   H   O   H   O   H   O   H   O   H   O   H   O   H   O   H   O   H   O   H   O   H  
  96   1   2   1   2   1   2   1   2   1   2   1   2   1   2   1   2   1   2   1   2   1   2   1   2   1   2   1   2   1   2   1   1   1   2   1   2   1   3   1   2   1   2   1   2   1   1   1   2   1   2   1   2   1   2   1   2   1   1   1   2   1   3   1   2   1   2   1   2   1   2   1   2   1   2   1   2   1   2   1   2   1   2   1   4   1   2   1   1   1   2   1   2   1   2   1   2   1   2   1   2
Cartesian
  7.0136300000000000  1.1108400000000000  9.7878699999999998
  9.4382000000000001  1.2972699999999999  9.9499300000000002
  1.8962100000000000  1.0115700000000001  9.7794100000000004
  4.3703500000000002  1.1696800000000001 10.0343999999999998
  8.1722199999999994  3.3369599999999999  9.9583200000000005
  0.5630560000000000  3.3742899999999998  9.8266399999999994
  3.0502400000000001  3.3176100000000002  9.9140499999999996
  5.5977100000000002  3.2108300000000001  9.8614200000000007
  9.4390099999999997  5.6360099999999997  9.7532700000000006
  1.8549100000000001  5.4270800000000001  9.9864800000000002
  4.3304700000000000  5.3786500000000004  9.9260999999999999
  6.9469000000000003  5.4070299999999998  9.7089999999999996
  0.5594680000000000  7.6449199999999999  9.9846500000000002
  3.3202699999999998  7.6801000000000004  9.9079099999999993
  5.7586199999999996  7.7244900000000003  9.8590099999999996
  8.2121200000000005  7.8258900000000002  9.8777699999999999
  5.7076500000000001  1.9363100000000000 11.9862000000000002
  8.2070600000000002  1.8235399999999999 12.0096000000000007
  0.7630710000000001  1.8070100000000000 11.8602000000000007
  3.2761499999999999  1.8376100000000000 11.9826999999999995
  6.9337099999999996  4.1181200000000002 12.0673999999999992
  9.5051600000000001  4.0904999999999996 12.0588999999999995
  1.9068000000000001  4.1041600000000003 12.0489999999999995
  4.3891900000000001  3.9763500000000001 12.0298999999999996
  8.1433099999999996  6.2456699999999996 11.8027999999999995
  0.6284130000000000  6.2391199999999998 11.9351000000000003
  3.0701800000000001  6.2749699999999997 12.0021000000000004
  5.6859200000000003  6.2770299999999999 11.9025999999999996
  9.5486100000000000  8.4625299999999992 12.0187000000000008
  1.9153500000000001  8.4774100000000008 11.9260000000000002
  4.4334400000000000  8.3404699999999998 12.0517000000000003
  6.9748900000000003  8.4854500000000002 12.0075000000000003
  5.7039600000000004  0.3659090000000000 14.0305999999999997
  8.2390600000000003  0.3659090000000000 14.0305999999999997
  0.6337739999999999  0.3659090000000000 14.0305999999999997
  3.1688700000000001  0.3659090000000000 14.0305999999999997
  6.9715100000000003  2.5613700000000001 14.0305999999999997
  9.5066000000000006  2.5613700000000001 14.0305999999999997
  1.9013199999999999  2.5613700000000001 14.0305999999999997
  4.4364200000000000  2.5613700000000001 14.0305999999999997
  8.2390600000000003  4.7568200000000003 14.0305999999999997
  0.6337739999999999  4.7568200000000003 14.0305999999999997
  3.1688700000000001  4.7568200000000003 14.0305999999999997
  5.7039600000000004  4.7568200000000003 14.0305999999999997
  9.5066000000000006  6.9522800000000000 14.0305999999999997
  1.9013199999999999  6.9522800000000000 14.0305999999999997
  4.4364200000000000  6.9522800000000000 14.0305999999999997
  6.9715100000000003  6.9522800000000000 14.0305999999999997
  6.9715100000000003  1.0977300000000001 16.1005000000000003
  9.5066000000000006  1.0977300000000001 16.1005000000000003
  1.9013199999999999  1.0977300000000001 16.1005000000000003
  4.4364200000000000  1.0977300000000001 16.1005000000000003
  8.2390600000000003  3.2931800000000000 16.1005000000000003
  0.6337739999999999  3.2931800000000000 16.1005000000000003
  3.1688700000000001  3.2931800000000000 16.1005000000000003
  5.7039600000000004  3.2931800000000000 16.1005000000000003
  9.5066000000000006  5.4886400000000002 16.1005000000000003
  1.9013199999999999  5.4886400000000002 16.1005000000000003
  4.4364200000000000  5.4886400000000002 16.1005000000000003
  6.9715100000000003  5.4886400000000002 16.1005000000000003
  0.6337739999999999  7.6840999999999999 16.1005000000000003
  3.1688700000000001  7.6840999999999999 16.1005000000000003
  5.7039600000000004  7.6840999999999999 16.1005000000000003
  8.2390600000000003  7.6840999999999999 16.1005000000000003
  5.6533100000000003  1.8285400000000001 18.1507000000000005
  8.3077000000000005  1.9036599999999999 18.2068000000000012
  0.6624670000000000  1.8269000000000000 18.2513000000000005
  3.0060600000000002  1.8255100000000000 18.2237000000000009
  6.9525600000000001  4.0668600000000001 18.0838999999999999
  9.5554600000000001  4.1023399999999999 18.0885999999999996
  1.8133300000000001  4.0382600000000002 18.3063000000000002
  4.4316300000000002  4.0554899999999998 18.2218000000000018
  8.1906400000000001  6.1818200000000001 18.1605999999999987
  0.5855480000000000  6.2258599999999999 18.1596000000000011
  3.1791399999999999  6.2325299999999997 18.2727000000000004
  5.6193000000000000  6.2439000000000000 18.1509999999999998
  9.5496499999999997  8.4262300000000003 18.1226999999999983
  1.7891600000000001  8.4291999999999998 18.0867000000000004
  4.5024899999999999  8.4805100000000007 18.2384999999999984
  6.9241099999999998  8.4915699999999994 18.0722999999999985
  5.7081099999999996  0.3717480000000000 20.2465000000000011
  8.0735399999999995  0.2603390000000000 20.2063999999999986
  0.4798510000000000  0.3167770000000000 20.2383999999999986
  3.0986199999999999  0.3365870000000000 20.1972999999999985
  7.0335999999999999  2.4337399999999998 20.1936000000000000
  9.4576600000000006  2.4845899999999999 20.4517999999999986
  1.8337699999999999  2.3717199999999998 20.2313000000000009
  4.4098899999999999  2.4993599999999998 20.2656999999999989
  8.3481699999999996  4.6765299999999996 20.1084999999999994
  0.5762580000000000  4.7352900000000000 20.3134000000000015
  3.0151100000000000  4.7231199999999998 20.3447999999999993
  5.6985599999999996  4.6684599999999996 20.2053000000000011
  9.4372000000000007  6.8523199999999997 20.1122000000000014
  1.9042100000000000  6.9573900000000002 20.2407000000000004
  4.3804900000000000  6.8410599999999997 20.3655000000000008
  6.8522800000000004  6.8363199999999997 20.1967999999999996
  0.7973890000000000  4.1414499999999999 27.2520999999999987
  0.9596740000000000  3.6791000000000000 26.3968999999999987
  0.4076390000000000  4.9238000000000000 26.9821999999999989
  4.8040000000000003  5.1224299999999996  4.5102099999999998
  4.6078500000000000  5.7917699999999996  5.2126999999999999
  3.9823599999999999  4.7202000000000002  4.1801399999999997
  1.5894299999999999  3.8942000000000001  6.7154699999999998
  6.8942800000000002  4.2044300000000003 28.1201000000000008
  2.0000300000000002  4.0535899999999998  7.5646000000000004
  9.7782099999999996  4.5835800000000004 23.3984999999999985
  9.6256599999999999  4.2891199999999996 22.4609999999999985
 10.1306999999999992  5.4941100000000000 23.3368000000000002
  1.4444200000000000  0.9142270000000000 26.8458000000000006
  0.5330610000000000  0.9411010000000000 27.1538000000000004
  1.2995300000000001  1.1224200000000000 25.9246000000000016
  6.6571600000000002  0.3912160000000000 28.5832000000000015
  9.3602399999999992  2.6565500000000002  0.1588050000000000
  6.3022799999999997  1.2266300000000001 29.0619000000000014
  7.1435300000000002  6.4857899999999997 25.7306999999999988
  0.0368462000000000  0.2398810000000000  6.8232100000000004
  6.6871999999999998  7.3307000000000002 25.7683999999999997
  8.6713699999999996  3.0801300000000000 29.7778999999999989
  9.1302800000000008  4.8280200000000004  0.2677400000000000
  7.8329899999999997  2.5476200000000002 29.9241999999999990
  5.3055599999999998  2.0859299999999998 23.6265000000000001
  5.8549899999999999  2.9247399999999999 23.5511000000000017
  2.5334099999999999  8.2795900000000007 27.7706000000000017
  3.3218299999999998  7.7249699999999999 27.6602999999999994
  3.0733299999999999  6.8543300000000000 28.0080999999999989
  3.7857400000000001  6.6963499999999998 22.9901000000000018
  9.5395400000000006  5.5849500000000001  0.7665360000000000
  8.7923700000000000  6.2566499999999996  0.7979680000000000
  4.0248699999999999  0.5018470000000000  7.5673399999999997
  9.0204199999999997  1.2138000000000000  4.3363600000000000
  8.8186499999999999  1.5662199999999999  5.1823399999999999
  9.9795999999999996  1.1922999999999999  4.4893999999999998
  0.6668930000000000  8.3321100000000001  6.5723599999999998
  6.2585899999999999  0.3927170000000000 27.7193000000000005
  1.5040800000000001  8.6906499999999998  6.8217600000000003
  2.2736299999999998  5.5807000000000002  1.0389100000000000
  2.5167999999999999  5.2094199999999997  0.1237470000000000
  1.3372900000000001  5.7625299999999999  0.9532000000000000
  6.4308199999999998  5.0294900000000000 28.2855999999999987
  8.0075599999999998  6.6294800000000000 26.1956999999999987
  6.5457999999999998  5.4426800000000002 27.4454999999999991
  1.7373700000000001  1.9203600000000001  4.5028499999999996
  1.9879400000000000  2.3119800000000001  5.3621999999999996
  0.5769770000000000  7.6557199999999996 29.2668999999999997
 10.0923999999999996  7.0434000000000001 29.7514000000000003
  0.0356250000000000  8.3823100000000004 28.9310000000000009
  6.9440900000000001  0.4369330000000000  2.8264999999999998
  6.7941099999999999  1.3729600000000000  2.7784300000000002
  7.6747699999999996  0.3383760000000000  3.4791599999999998
 -0.0168562000000000  5.4751099999999999  5.2213599999999998
  0.5664700000000000  6.1574499999999999  4.9111700000000003
 10.0728000000000009  4.8639700000000001  4.4069300000000000
  1.8336900000000000  2.6633300000000002  3.8875099999999998
  3.7656999999999998  6.3914499999999999 23.9042999999999992
  4.4519099999999998  6.9480899999999997 24.3509999999999991
  8.4158600000000003  3.3143600000000002 26.6546999999999983
  7.5315700000000003  2.9496199999999999 26.3326999999999991
  7.2728400000000004  3.5577000000000001 25.5961999999999996
  5.1051399999999996  1.8532200000000001 22.7105999999999995
  2.7879999999999998  3.9353799999999999  2.9981100000000001
  2.4843299999999999  4.6960800000000003  2.3994399999999998
  3.0991900000000001  3.4268200000000002  2.2419300000000000
  3.5619000000000001  0.3599180000000000  6.7186199999999996
  3.8916800000000000  1.1269700000000000  6.2106199999999996
  2.0037500000000001  7.3516100000000000  4.1642000000000001
  1.5054500000000000  7.8573800000000000  4.8074000000000003
  3.9456899999999999  2.9698199999999999 26.5098999999999982
  3.9775200000000002  2.4840599999999999 27.3205999999999989
  0.6925640000000000  7.9551499999999997  2.7278500000000001
  3.0870400000000000  2.0957499999999998 27.4468999999999994
  0.2433730000000000  8.4539200000000001  2.0677400000000001
  2.7427600000000001  7.9235499999999996  3.9702600000000001
 -0.0258512000000000  7.8835100000000002  1.3623600000000000
  9.3328000000000007  3.7017500000000001  3.2737599999999998
  8.4776100000000003  4.1281499999999998  3.1886500000000000
  9.1427200000000006  2.7819300000000000  3.6950099999999999
  6.7874100000000004  0.7180900000000000  6.5210900000000001
  6.9494100000000003  1.1241200000000000  7.3837700000000002
  6.8235299999999999  5.2728700000000002  2.3346800000000001
  7.1295000000000002  5.0322100000000001  3.2221099999999998
  5.2062200000000001  7.8351100000000002  2.9369100000000001
  4.2809999999999997  7.8653199999999996  2.8459900000000000
  6.5682600000000004  8.6501400000000004  6.8065600000000002
  4.2244799999999998  7.0153999999999996  2.4241500000000000
  4.4017999999999997  1.8480099999999999  2.0751900000000001
  4.7286599999999996  1.7534500000000000  3.0008800000000000
  4.0586700000000002  0.9442880000000000  1.9042300000000001
  0.9473770000000000  8.1605899999999991 23.9727999999999994
  0.2437450000000000  7.4668900000000002 24.1038999999999994
  9.2626500000000007  5.5465000000000000  6.8613499999999998
  9.5053500000000000  7.9395699999999998 23.9480000000000004
  9.5312400000000004  5.9070799999999997  7.7305700000000002
  9.9712300000000003  6.7440800000000003  7.4817999999999998
  2.1944900000000001  8.6322500000000009 30.0335999999999999
  9.9255300000000002  6.9592000000000001 26.5573000000000015
  0.1444130000000000  7.5265599999999999 27.2000999999999991
 10.2393999999999998  7.2965000000000000 25.6879999999999988
  9.2882499999999997  1.2094300000000000 28.1467999999999989
  9.2388600000000007  2.0019399999999998 28.6890999999999998
  2.1823500000000000  0.4691720000000000 22.5309999999999988
  1.8316200000000000  0.7920580000000000 23.4094000000000015
  5.2248200000000002  3.2371699999999999  5.0827400000000003
  1.2185800000000000  1.5426200000000001 23.1589999999999989
  5.1540600000000003  2.2896800000000002  4.8230800000000000
  8.3518100000000004  0.9918910000000000 28.0823999999999998
  5.8976800000000003  1.8317699999999999  5.2698000000000000
  5.6493700000000002  2.4660600000000001 29.6795000000000009
  5.0041700000000002  2.5689500000000001 28.9395999999999987
  5.1916500000000001  1.8557300000000001  0.1946770000000000
  7.6113000000000000  7.6162700000000001  0.4670840000000000
  6.3284399999999996  4.9279999999999999  3.7428499999999998
  1.6876800000000001  2.8082900000000000 24.6385000000000005
  0.7909180000000000  2.9395699999999998 24.9599000000000011
  2.2947600000000001  4.4522800000000000 28.3657000000000004
  0.3139180000000000  3.5195599999999998 24.3282999999999987
  3.0333500000000000  4.7201800000000000 28.9244999999999983
  7.5008400000000002  8.1924200000000003  1.2640400000000001
  3.8372500000000000  4.5000600000000004 28.4330999999999996
  5.4023599999999998  8.5872499999999992 26.0095999999999989
  5.3353799999999998  0.7033020000000000 25.6908999999999992
  4.4518300000000002  8.4289600000000000 26.3148000000000017
  0.9874849999999999  4.5493499999999996  6.3957400000000000
  4.0712700000000002  2.8642799999999999 24.3116999999999983
  3.4855499999999999  3.4554399999999998 24.8187999999999995
  7.6842400000000000  4.4266899999999998 23.6129999999999995
  3.6335400000000000  4.3277099999999997 24.3877999999999986
  6.8959099999999998  4.3222699999999996 24.1273000000000017
  6.7010300000000003  5.1781300000000003 24.5124999999999993
  2.8754900000000001  0.5941730000000000 30.1398000000000010
  2.3338500000000000  1.1224600000000000  0.5885410000000000
  7.3562399999999997  8.1178200000000000 29.7913999999999994
  9.3082100000000008  2.3853300000000002  6.6194899999999999
  0.0215434000000000  2.9851500000000000  6.5709799999999996
  9.0270100000000006  2.4177200000000001  7.5610499999999998
  0.5726410000000000  2.2866499999999998  1.3773200000000001
  0.1234100000000000  2.9252600000000002  2.0059499999999999
  0.4866960000000000  1.3081600000000000  1.7178000000000000
  5.5892900000000001  6.0011700000000001  1.1667300000000000
  6.2115999999999998  6.6685900000000000  0.8403190000000000
  5.3570799999999998  5.4207200000000002  0.4923930000000000
  7.7058999999999997  0.6886220000000000 24.7308999999999983
  7.2417800000000003  1.0307599999999999 23.9800000000000004
  7.6701300000000003  1.4328799999999999 25.3272000000000013
  4.7128899999999998  6.8661500000000002  6.8942100000000002
  4.6452600000000004  6.7037599999999999  7.8488400000000000
  4.3268500000000003  7.7682300000000000  6.8528300000000000
