Cu O  H  O  H  O  H  O  H  O  H  O  H  O  H  O  H  O  H  O  H  O  H  O  H  O  H  O  H  O  H  O  H  O  H  O  H  O  H  O  H  O  H  O  H  O  H  O  H  O  H  O  H  O  H  O  H  O  H  O  H  O  H  O  H  O  H  O  H  O  H  O  H  O  H  O  H  O  H  O  H  O  H  O  H  O  H  O  H  O  H  O  H  O  H  O  H  O  H  O  H 
 1.0000000000000000
    10.1403771778044529    0.0000000000000000    0.0000000000000000
     0.0000000000000000    8.7818242399346058    0.0000000000000000
     0.0000000000000000    0.0000000000000000   30.1311271579000000
 Cu  O   H   O   H   O   H   O   H   O   H   O   H   O   H   O   H   O   H   O   H   O   H   O   H   O   H   O   H   O   H   O   H   O   H   O   H   O   H   O   H   O   H   O   H   O   H   O   H   O   H   O   H   O   H   O   H   O   H   O   H   O   H   O   H   O   H   O   H   O   H   O   H   O   H   O   H   O   H   O   H   O   H   O   H   O   H   O   H   O   H   O   H   O   H   O   H   O   H   O   H  
  96   1   2   1   2   1   2   1   2   1   2   1   2   1   2   1   2   1   2   1   2   1   2   1   2   1   2   1   2   1   2   1   1   1   2   1   2   1   3   1   2   1   2   1   2   1   1   1   2   1   2   1   2   1   2   1   2   1   1   1   2   1   3   1   2   1   2   1   2   1   2   1   2   1   2   1   2   1   2   1   2   1   2   1   4   1   2   1   1   1   2   1   2   1   2   1   2   1   2   1   2
Cartesian
  6.9467900000000000  1.1014600000000001  9.7026599999999998
  9.3913700000000002  1.2906700000000000  9.8121899999999993
  1.6962600000000001  1.2197400000000000  9.7596699999999998
  4.2885499999999999  1.2516000000000000  9.9523200000000003
  8.0951500000000003  3.3514499999999998  9.6602700000000006
  0.5069850000000000  3.3268300000000002  9.9773200000000006
  2.9790800000000002  3.4172899999999999  9.9843600000000006
  5.5959500000000002  3.3433799999999998  9.9337199999999992
  9.4897299999999998  5.5339099999999997  9.7796800000000008
  1.8030200000000001  5.5873900000000001  9.7897200000000009
  4.3455599999999999  5.7716000000000003  9.7565399999999993
  6.9333799999999997  5.6742900000000001  9.6957699999999996
  0.4267100000000000  7.8102499999999999  9.8989799999999999
  3.1217999999999999  7.9526899999999996  9.9508799999999997
  5.7115900000000002  7.8000499999999997  9.8594100000000005
  8.1864799999999995  7.8398199999999996  9.7327600000000007
  5.6669600000000004  1.8225300000000000 12.0126000000000008
  8.1014599999999994  1.9647699999999999 11.8938000000000006
  0.7473370000000000  1.8175600000000001 12.0028000000000006
  3.2908200000000001  1.7163400000000000 12.0357000000000003
  6.8381400000000001  4.1360799999999998 11.9748999999999999
  9.5188000000000006  4.0356199999999998 11.8893000000000004
  1.8117300000000001  4.1308699999999998 11.9931000000000001
  4.3913900000000003  4.0284100000000000 11.9323999999999995
  8.1196300000000008  6.2326199999999998 11.8099000000000007
  0.3403630000000000  6.2907700000000002 11.9578000000000007
  3.1031300000000002  6.2367699999999999 12.0213000000000001
  5.7096600000000004  6.2305500000000000 11.7782000000000000
  9.5160199999999993  8.5115599999999993 11.9649000000000001
  1.7998900000000000  8.3757000000000001 11.9446999999999992
  4.5741899999999998  8.3942399999999999 11.8751999999999995
  6.9991000000000003  8.4387200000000000 11.9480000000000004
  5.7039600000000004  0.3659090000000000 14.0305999999999997
  8.2390600000000003  0.3659090000000000 14.0305999999999997
  0.6337739999999999  0.3659090000000000 14.0305999999999997
  3.1688700000000001  0.3659090000000000 14.0305999999999997
  6.9715100000000003  2.5613700000000001 14.0305999999999997
  9.5066000000000006  2.5613700000000001 14.0305999999999997
  1.9013199999999999  2.5613700000000001 14.0305999999999997
  4.4364200000000000  2.5613700000000001 14.0305999999999997
  8.2390600000000003  4.7568200000000003 14.0305999999999997
  0.6337739999999999  4.7568200000000003 14.0305999999999997
  3.1688700000000001  4.7568200000000003 14.0305999999999997
  5.7039600000000004  4.7568200000000003 14.0305999999999997
  9.5066000000000006  6.9522800000000000 14.0305999999999997
  1.9013199999999999  6.9522800000000000 14.0305999999999997
  4.4364200000000000  6.9522800000000000 14.0305999999999997
  6.9715100000000003  6.9522800000000000 14.0305999999999997
  6.9715100000000003  1.0977300000000001 16.1005000000000003
  9.5066000000000006  1.0977300000000001 16.1005000000000003
  1.9013199999999999  1.0977300000000001 16.1005000000000003
  4.4364200000000000  1.0977300000000001 16.1005000000000003
  8.2390600000000003  3.2931800000000000 16.1005000000000003
  0.6337739999999999  3.2931800000000000 16.1005000000000003
  3.1688700000000001  3.2931800000000000 16.1005000000000003
  5.7039600000000004  3.2931800000000000 16.1005000000000003
  9.5066000000000006  5.4886400000000002 16.1005000000000003
  1.9013199999999999  5.4886400000000002 16.1005000000000003
  4.4364200000000000  5.4886400000000002 16.1005000000000003
  6.9715100000000003  5.4886400000000002 16.1005000000000003
  0.6337739999999999  7.6840999999999999 16.1005000000000003
  3.1688700000000001  7.6840999999999999 16.1005000000000003
  5.7039600000000004  7.6840999999999999 16.1005000000000003
  8.2390600000000003  7.6840999999999999 16.1005000000000003
  5.8471099999999998  1.8369500000000001 18.2241999999999997
  8.2527399999999993  1.7837099999999999 18.2936000000000014
  0.5829920000000000  1.8151999999999999 18.1389999999999993
  3.0384500000000001  1.8209100000000000 18.1127000000000002
  6.9547699999999999  4.0380200000000004 18.1707999999999998
  9.5677099999999999  4.1920599999999997 18.2433000000000014
  1.9682800000000000  4.1091600000000001 18.1631000000000000
  4.2906700000000004  4.0241800000000003 18.2918999999999983
  8.1659500000000005  6.1699999999999999 18.2108999999999988
  0.6207670000000000  6.1973799999999999 18.0919999999999987
  3.1967599999999998  6.2175700000000003 18.2771000000000008
  5.7748600000000003  6.2021499999999996 18.1395000000000017
  9.5067699999999995  8.3880900000000000 18.2216999999999985
  1.8365199999999999  8.3918400000000002 18.2291999999999987
  4.4743800000000000  8.4547500000000007 18.1330999999999989
  6.9271099999999999  8.3812300000000004 18.1454999999999984
  5.6768500000000000  0.3532620000000000 20.3807000000000009
  8.1620299999999997  0.3788850000000000 20.2317000000000000
  0.6205030000000000  0.4894960000000000 20.1742999999999988
  3.0924299999999998  0.3549370000000000 20.2305999999999990
  6.8036500000000002  2.6288499999999999 20.2754000000000012
  9.4789399999999997  2.5728599999999999 20.2301000000000002
  1.9247500000000000  2.4816699999999998 20.0885999999999996
  4.3495400000000002  2.7011599999999998 20.4359000000000002
  8.1854600000000008  4.6596599999999997 20.2596999999999987
  0.5419079999999999  4.8368399999999996 20.2399999999999984
  3.1590500000000001  4.7957599999999996 20.2166999999999994
  5.6025999999999998  4.7655700000000003 20.2194000000000003
  9.4240800000000000  6.9302999999999999 20.1292000000000009
  1.9392100000000001  7.0929799999999998 20.2794999999999987
  4.4075899999999999  6.8385400000000001 20.2049999999999983
  6.8758400000000002  6.8822299999999998 20.3332000000000015
  8.8739699999999999  6.9426399999999999 23.6497999999999990
  7.9505600000000003  6.5464000000000002 23.5368999999999993
  9.3554999999999993  6.7592499999999998 22.8069999999999986
  6.5450200000000001  5.1702000000000004 26.9994000000000014
  7.3851500000000003  5.2016400000000003 27.4645000000000010
  6.5316900000000002  5.8794899999999997 26.3670000000000009
  4.2008200000000002  2.8492199999999999  6.7985600000000002
  2.3875199999999999  0.8414360000000000 25.7813000000000017
  3.7294399999999999  2.8009599999999999  7.6603500000000002
  9.0497200000000007  0.4351340000000000  1.3699600000000001
  8.3128399999999996  0.0155575000000000  0.9098950000000000
  9.2302400000000002  8.6094600000000003  2.1282299999999998
  6.3374300000000003  7.6944600000000003 25.6925999999999988
  6.7614299999999998  8.4742099999999994 26.0585999999999984
  5.4074499999999999  7.7234100000000003 25.7395999999999994
  6.4801399999999996  2.0732699999999999  3.1298400000000002
  0.2583730000000000  0.1606180000000000  6.5585399999999998
  5.6365100000000004  1.9829900000000000  2.6445500000000002
  3.2518799999999999  5.2147500000000004  5.4978499999999997
  8.5837199999999996  2.8308700000000000  0.7113429999999999
  2.2927100000000000  5.3243099999999997  5.2240200000000003
  0.3585200000000000  7.9757600000000002  6.5946999999999996
  2.9870899999999998  2.1333299999999999 27.4962000000000018
  9.8959499999999991  7.8728800000000003  7.3652699999999998
  2.9521700000000002  3.1415500000000001 23.2958999999999996
  3.8774999999999999  3.1940000000000000 23.6086999999999989
  9.4779199999999992  3.0749499999999999 28.3899000000000008
  9.9022199999999998  2.3672000000000000 29.0110999999999990
  9.6208600000000004  1.5113099999999999 28.6271999999999984
  7.1798500000000001  5.5861400000000003  6.9490999999999996
  3.4744600000000001  1.4451700000000001 26.9864999999999995
  4.3777999999999997  1.9456400000000000 26.8404999999999987
  2.9410500000000002  5.3940599999999996  0.4502740000000000
  0.7678900000000000  3.7162700000000002  2.0114700000000001
  9.9088899999999995  3.6847900000000000  1.8640200000000000
  1.1787500000000000  4.3958700000000004  1.4336800000000001
  8.3233700000000006  3.4532400000000001  1.4013400000000000
  6.9144500000000004  1.2155300000000000  3.1278999999999999
  7.5958899999999998  2.9525299999999999  1.9235599999999999
  0.6666090000000000  4.1674499999999997 25.6970999999999989
  0.9369690000000001  4.9275700000000002 25.1956999999999987
  0.4719210000000000  3.4628500000000000 25.0537999999999990
  1.9309200000000000  0.5122230000000000 25.0179000000000009
  3.2822499999999999  6.0941299999999998  5.9895300000000002
  2.6736300000000002  8.9092599999999997 24.4690000000000012
  4.8179499999999997  2.2954699999999999  0.9459990000000000
  5.3570399999999996  1.8092200000000001  0.2175030000000000
  0.7008650000000000  5.1450399999999998  4.2396700000000003
 -0.0455856000000000  4.9554600000000004  4.8459899999999996
  0.7521270000000000  4.5162300000000002  3.4576899999999999
  6.4547100000000004  0.9776670000000000 29.5306999999999995
  7.0368399999999998  1.2293300000000000 28.8332000000000015
  6.0719799999999999  0.0921347000000000 29.2097000000000016
  3.9274499999999999  6.6521200000000000 25.2611999999999988
  3.2482199999999999  6.4244800000000000 25.9410999999999987
  3.5222699999999998  6.2765700000000004 24.4544999999999995
  3.9250099999999999  2.0202599999999999  0.7733770000000000
  6.3036399999999997  5.8526899999999999  6.5215399999999999
  5.8986499999999999  6.4219299999999997  7.1950000000000003
  1.6495700000000000  3.8644900000000000 27.9304999999999986
  2.1129500000000001  3.2838200000000000 28.5585999999999984
  1.3485600000000000  2.8494700000000002 28.9892000000000003
  2.9043600000000001  2.9382999999999999 22.3789000000000016
  6.7457700000000003  2.6747399999999999  5.6390500000000001
  6.0028600000000001  2.9548100000000002  6.1815100000000003
  6.4787699999999999  2.4940199999999999  4.7523999999999997
  2.1040800000000002  5.8060799999999997  0.6222030000000000
  2.2508499999999998  6.4432799999999997  1.3248800000000001
  9.8328299999999995  7.7537200000000004  3.8402500000000002
  9.6917399999999994  7.7973499999999998  4.8310000000000004
  9.6322200000000002  7.0274500000000000 25.2886999999999986
 10.1338000000000008  7.4691799999999997 25.9893999999999998
  0.4926760000000000  2.4071199999999999 22.4588000000000001
  0.7235200000000001  7.9424799999999998 25.6375999999999991
  0.3284960000000000  2.0646599999999999 23.3969999999999985
  9.8109400000000004  6.7575399999999997  3.6981799999999998
  1.1456999999999999  1.5746300000000000 23.7582999999999984
  2.1483400000000001  1.4940899999999999  1.0503199999999999
  1.4567099999999999  2.1580900000000001  1.2239400000000000
  1.7022200000000001  0.8714490000000000  0.3780940000000000
  1.9939199999999999  6.0332800000000004 27.4835999999999991
  2.4273099999999999  6.7243399999999998 28.0106000000000002
  7.7934400000000004  6.9474499999999999  2.0528100000000000
  8.3107500000000005  6.2942900000000002  1.3944000000000001
  5.9199200000000003  6.6535200000000003 28.1995000000000005
  5.5709600000000004  7.1330900000000002 29.0457000000000001
  1.2783400000000000  6.4541899999999996 27.0078999999999994
  5.4457500000000003  6.5288800000000000 29.7612999999999985
  4.6950799999999999  5.1816399999999998  0.8852020000000000
  4.5726399999999998  5.5114799999999997  1.8321200000000000
  4.8000100000000003  4.2506000000000004  0.8726000000000000
  1.2803400000000000  7.7373099999999999  3.0794400000000000
  2.0937100000000002  7.7859800000000003  2.5531600000000001
  9.3197500000000009  6.5471100000000000  0.1054870000000000
  2.2262400000000002  8.6553599999999999  2.2144200000000001
  9.7353400000000008  6.5416299999999996 29.3366000000000007
  0.5261900000000000  6.7680999999999996 29.6574999999999989
  5.7350800000000000  4.0114599999999996 23.9271999999999991
  2.9342100000000002  7.2907799999999998  6.8523300000000003
  1.8896299999999999  7.4310600000000004  6.8768200000000004
  3.1623299999999999  7.0921900000000004  7.7673300000000003
  6.2471800000000002  5.7144800000000000 23.5379000000000005
  5.6970200000000002  6.4650499999999997 23.7005000000000017
  2.4227400000000001  5.0002399999999998 23.2180000000000000
  2.0495700000000001  5.8706199999999997 23.2932999999999986
  2.9714399999999999  0.0050619500000000 28.0718999999999994
  1.7464299999999999  6.0222100000000003 22.3472000000000008
  2.8226800000000001  8.2929200000000005 28.8817999999999984
  6.2027799999999997  5.5570700000000004 22.5542000000000016
  3.7738200000000002  8.0743500000000008 29.1640000000000015
  4.6049699999999998  0.3576270000000000  5.6920400000000004
  4.3808800000000003  1.1365799999999999  6.1489599999999998
  4.0621499999999999  8.4852799999999995  6.1494000000000000
  6.1442600000000001  2.3929200000000002 26.6312999999999995
  8.1456700000000009  5.3522299999999996  1.6347499999999999
  7.3635000000000002  7.4287999999999998  5.9445800000000002
  7.3733700000000004  8.3482599999999998  5.7146999999999997
  3.3540500000000000  6.9574800000000003  3.2039700000000000
  6.3983800000000004 -0.1775830000000000  5.7464899999999997
  4.0924500000000004  6.3557300000000003  3.2965599999999999
  5.9508999999999999  3.1910699999999999 27.0808999999999997
  3.9591500000000002  5.8133699999999999  4.1070399999999996
  4.0032800000000002  8.4245500000000000 23.2921000000000014
  3.9950199999999998  8.5042200000000001 22.3038999999999987
  4.8931699999999996  8.7810299999999994 23.5932999999999993
  3.9103500000000002  3.7930000000000001  6.5318899999999998
  9.0333199999999998  1.4854300000000000 23.7296000000000014
  8.1664999999999992  1.0255600000000000 23.9546999999999990
  8.6493599999999997  8.0735499999999991 28.6409999999999982
  8.4527699999999992  0.1118980000000000 23.8974000000000011
  8.5090400000000006  8.7251600000000007 27.8892999999999986
  8.9247599999999991  8.4114699999999996 27.0106000000000002
  5.4722900000000001  3.0805199999999999 23.9196999999999989
  6.0734399999999997  2.5748600000000001 23.3580000000000005
  6.0361599999999997  2.5799400000000001 25.6542999999999992
  3.1986599999999998  2.5011399999999999  3.5004300000000002
  3.3944200000000002  2.8329300000000002  4.4141500000000002
  2.2965300000000002  2.8594400000000002  3.3596200000000001
  9.7099799999999998  1.8526600000000000  6.6420399999999997
  9.8581699999999994  2.0734499999999998  7.5543399999999998
  8.7594399999999997  1.6591499999999999  6.5474100000000002
  6.9200100000000004  7.6197100000000004  3.2502300000000002
  7.2286500000000000  7.8071599999999997  4.1887600000000003
  5.9700600000000001  7.4172200000000004  3.2879499999999999
  8.7173200000000008  4.3992599999999999  6.0810800000000000
  9.1969100000000008  3.8217900000000000  6.6555499999999999
  7.8719099999999997  3.9283199999999998  5.8857299999999997
  9.2033799999999992  4.5449400000000004 27.7804000000000002
  9.8324700000000007  4.5971200000000003 27.0634000000000015
  9.4239700000000006  5.1910800000000004 28.4897999999999989
