Cu O  H  O  H  O  H  O  H  O  H  O  H  O  H  O  H  O  H  O  H  O  H  O  H  O  H  O  H  O  H  O  H  O  H  O  H  O  H  O  H  O  H  O  H  O  H  O  H  O  H  O  H  O  H  O  H  O  H  O  H  O  H  O  H  O  H  O  H  O  H  O  H  O  H  O  H  O  H  O  H  O  H  O  H  O  H  O  H  O  H  O  H  O  H  O  H  O  H  O  H 
 1.0000000000000000
    10.1403771778044529    0.0000000000000000    0.0000000000000000
     0.0000000000000000    8.7818242399346058    0.0000000000000000
     0.0000000000000000    0.0000000000000000   30.1311271579000000
 Cu  O   H   O   H   O   H   O   H   O   H   O   H   O   H   O   H   O   H   O   H   O   H   O   H   O   H   O   H   O   H   O   H   O   H   O   H   O   H   O   H   O   H   O   H   O   H   O   H   O   H   O   H   O   H   O   H   O   H   O   H   O   H   O   H   O   H   O   H   O   H   O   H   O   H   O   H   O   H   O   H   O   H   O   H   O   H   O   H   O   H   O   H   O   H   O   H   O   H   O   H  
  96   1   2   1   2   1   2   1   2   1   2   1   2   1   2   1   2   1   2   1   2   1   2   1   2   1   2   1   2   1   2   1   1   1   2   1   2   1   3   1   2   1   2   1   2   1   1   1   2   1   2   1   2   1   2   1   2   1   1   1   2   1   3   1   2   1   2   1   2   1   2   1   2   1   2   1   2   1   2   1   2   1   2   1   4   1   2   1   1   1   2   1   2   1   2   1   2   1   2   1   2
Cartesian
  6.8670900000000001  1.0693500000000000  9.9192099999999996
  9.3150300000000001  1.1382900000000000  9.8453099999999996
  1.7758200000000000  1.0760900000000000  9.9230900000000002
  4.4381199999999996  0.9992980000000000 10.0198000000000000
  8.0570599999999999  3.1817099999999998  9.9723000000000006
  0.5519670000000000  3.1250800000000001  9.7761399999999998
  3.0489600000000001  3.2364099999999998  9.9659600000000008
  5.5840800000000002  3.1813099999999999  9.9720499999999994
  9.4385700000000003  5.3509799999999998  9.8759300000000003
  1.8177300000000001  5.4676999999999998  9.8241099999999992
  4.2328099999999997  5.3669000000000002  9.7143200000000007
  6.9112200000000001  5.3776400000000004  9.8800699999999999
  0.5903010000000000  7.7485999999999997  9.8864999999999998
  3.0326200000000001  7.5290499999999998  9.9489800000000006
  5.6681499999999998  7.5810300000000002  9.9762799999999991
  8.0812299999999997  7.5743900000000002  9.9274500000000003
  5.5886600000000000  1.7878099999999999 12.0275999999999996
  8.2244899999999994  1.7801400000000001 12.0536999999999992
  0.5651659999999999  1.7883100000000001 11.9521999999999995
  3.1838600000000001  1.9183699999999999 12.1085999999999991
  6.8091200000000001  3.9546800000000002 11.9954999999999998
  9.3277099999999997  3.9032100000000001 12.0061999999999998
  1.6862200000000001  3.9851299999999998 12.0076999999999998
  4.2910300000000001  4.1541600000000001 12.0106999999999999
  8.3337599999999998  6.2836200000000000 11.9072999999999993
  0.6174400000000000  6.1890299999999998 11.9308999999999994
  3.1768800000000001  6.1275599999999999 11.9204000000000008
  5.7574600000000000  6.1983300000000003 12.0281000000000002
  9.4347899999999996  8.3756100000000000 11.9545999999999992
  1.8672299999999999  8.4624000000000006 12.0013000000000005
  4.4432400000000003  8.4233600000000006 11.8636999999999997
  6.9766199999999996  8.2769300000000001 12.0730000000000004
  5.7039600000000004  0.3659090000000000 14.0305999999999997
  8.2390600000000003  0.3659090000000000 14.0305999999999997
  0.6337739999999999  0.3659090000000000 14.0305999999999997
  3.1688700000000001  0.3659090000000000 14.0305999999999997
  6.9715100000000003  2.5613700000000001 14.0305999999999997
  9.5066000000000006  2.5613700000000001 14.0305999999999997
  1.9013199999999999  2.5613700000000001 14.0305999999999997
  4.4364200000000000  2.5613700000000001 14.0305999999999997
  8.2390600000000003  4.7568200000000003 14.0305999999999997
  0.6337739999999999  4.7568200000000003 14.0305999999999997
  3.1688700000000001  4.7568200000000003 14.0305999999999997
  5.7039600000000004  4.7568200000000003 14.0305999999999997
  9.5066000000000006  6.9522800000000000 14.0305999999999997
  1.9013199999999999  6.9522800000000000 14.0305999999999997
  4.4364200000000000  6.9522800000000000 14.0305999999999997
  6.9715100000000003  6.9522800000000000 14.0305999999999997
  6.9715100000000003  1.0977300000000001 16.1005000000000003
  9.5066000000000006  1.0977300000000001 16.1005000000000003
  1.9013199999999999  1.0977300000000001 16.1005000000000003
  4.4364200000000000  1.0977300000000001 16.1005000000000003
  8.2390600000000003  3.2931800000000000 16.1005000000000003
  0.6337739999999999  3.2931800000000000 16.1005000000000003
  3.1688700000000001  3.2931800000000000 16.1005000000000003
  5.7039600000000004  3.2931800000000000 16.1005000000000003
  9.5066000000000006  5.4886400000000002 16.1005000000000003
  1.9013199999999999  5.4886400000000002 16.1005000000000003
  4.4364200000000000  5.4886400000000002 16.1005000000000003
  6.9715100000000003  5.4886400000000002 16.1005000000000003
  0.6337739999999999  7.6840999999999999 16.1005000000000003
  3.1688700000000001  7.6840999999999999 16.1005000000000003
  5.7039600000000004  7.6840999999999999 16.1005000000000003
  8.2390600000000003  7.6840999999999999 16.1005000000000003
  5.7210999999999999  1.7735000000000001 18.2533999999999992
  8.3239300000000007  1.8651000000000000 18.3018999999999998
  0.6766850000000000  1.7088699999999999 18.1890999999999998
  3.1589999999999998  1.8490400000000000 18.2773000000000003
  6.9274199999999997  3.9846900000000001 18.2664000000000009
  9.5604899999999997  3.9047100000000001 18.1406999999999989
  1.8909499999999999  3.9702700000000002 18.3919999999999995
  4.5731200000000003  4.0332800000000004 18.2112000000000016
  8.2714700000000008  6.2582199999999997 18.1056999999999988
  0.7225810000000000  6.1841299999999997 18.1632999999999996
  3.0840900000000002  6.1469600000000000 18.2449000000000012
  5.6784200000000000  6.2250800000000002 18.2345000000000006
  9.3534600000000001  8.3302499999999995 18.1673000000000009
  1.9502699999999999  8.3365399999999994 18.1439999999999984
  4.3765099999999997  8.3968200000000000 18.1646000000000001
  6.9741299999999997  8.4559300000000004 18.0613999999999990
  5.8070399999999998  0.3102640000000000 20.1574999999999989
  8.3924400000000006  0.3694310000000000 20.1433999999999997
  0.6024870000000000  0.4107070000000000 20.1290000000000013
  3.2756500000000002  0.2801000000000000 20.2548999999999992
  7.0622999999999996  2.6331799999999999 20.2328000000000010
  9.4982799999999994  2.5040100000000001 20.3201999999999998
  1.8679600000000001  2.4754800000000001 20.4296000000000006
  4.5018599999999998  2.5683300000000000 20.1839000000000013
  8.4155999999999995  4.7129899999999996 20.2009000000000007
  0.6513360000000000  4.6398900000000003 20.3658999999999999
  3.1330800000000001  4.7450299999999999 20.2974999999999994
  5.7601899999999997  4.8060200000000002 20.2366999999999990
  9.6465999999999994  6.9167500000000004 20.2041000000000004
  1.9315599999999999  6.9789300000000001 20.2401000000000018
  4.3996800000000000  6.9397399999999996 20.2041000000000004
  7.0024499999999996  6.9535600000000004 20.1061000000000014
  9.1974099999999996  4.0486399999999998  2.3647100000000001
  9.2144600000000008  3.8368799999999998  3.3270000000000000
  9.1931700000000003  3.2428599999999999  1.7942000000000000
  9.6129200000000008  0.6445820000000000  3.6455000000000002
  9.7248000000000001  8.4702599999999997  3.8464100000000001
  8.9270399999999999  0.7328710000000001  3.0007000000000001
  0.8260720000000000  5.5448100000000000  0.9602740000000000
  9.1613699999999998  2.8105799999999999 28.7334999999999994
  0.2676660000000000  5.0272699999999997  1.5370400000000000
  3.2623700000000002  5.2889299999999997  6.4414199999999999
  2.7568100000000002  6.0341800000000001  6.2366700000000002
  3.6779799999999998  5.5606299999999997  7.2771400000000002
  5.3745300000000000  7.6133899999999999  3.2198799999999999
  4.4229300000000000  7.4259800000000000  3.0091899999999998
  5.9065599999999998  6.9661900000000001  2.8046099999999998
  9.9427199999999996  6.8398899999999996  4.3951700000000002
  3.2921700000000000  7.8871700000000002 26.7275999999999989
 10.2311999999999994  6.9952100000000002  5.3155900000000003
  6.4866400000000004  2.7238899999999999  6.8988800000000001
  2.2794200000000000  1.4293499999999999 25.4180999999999990
  6.2213900000000004  3.2460800000000001  7.7026199999999996
  3.8885600000000000  7.7671000000000001 27.4533999999999985
  3.8281299999999998  7.1961000000000004  0.1713680000000000
  4.6549300000000002  7.3189000000000002 27.1310000000000002
  2.2026500000000002  8.5233799999999995  5.1050500000000003
  1.4544800000000000 -0.1005750000000000  5.6804500000000004
  5.1392899999999999  3.1545700000000001  4.8103600000000002
  5.6125299999999996  3.6865800000000002  4.1005300000000000
  4.8719900000000003  3.9424800000000002  3.5832700000000002
  7.1546599999999998  7.9495399999999998 30.0865000000000009
  3.3198799999999999  6.5617799999999997 29.8197000000000010
  3.2250200000000002  6.9452499999999997 28.8847999999999985
  9.8434000000000008  7.1596000000000002 23.7134999999999998
  7.8882500000000002  0.2392300000000000 26.8049999999999997
  7.1770300000000002  0.7950970000000001 27.0567999999999991
  7.4761300000000004  8.1413499999999992 26.6123000000000012
  2.1089899999999999  1.3000200000000000 26.3534000000000006
  8.9728600000000007  6.7447400000000002  4.3494700000000002
  2.5977500000000000  1.9719500000000001 26.8614999999999995
 10.1229999999999993  0.6392130000000000  6.6880699999999997
  0.3709870000000000  0.6467250000000000  7.5564099999999996
  9.1172100000000000  0.3940850000000000  6.7447100000000004
  8.7338500000000003  3.4140400000000000 28.0973000000000006
  7.4209199999999997  2.7276099999999999  7.1597400000000002
  9.1527999999999992  4.2959500000000004 28.3949999999999996
  1.9851399999999999  1.6023000000000001 23.4283999999999999
  1.6221800000000000  0.6934160000000000 23.4822999999999986
  8.7878100000000003  3.2667999999999999 25.4863000000000000
  8.6578099999999996  2.3090899999999999 25.1326999999999998
  8.9730100000000004  3.2391299999999998 26.4802999999999997
  8.5878099999999993  5.2504999999999997  6.7135800000000003
  8.3627199999999995  5.2122200000000003  7.7068899999999996
  7.7261100000000003  5.2986800000000001  6.2641200000000001
  3.7663799999999998  2.2136499999999999  5.3236200000000000
  4.2057500000000001  1.7803599999999999  6.0958300000000003
  3.0632199999999998  2.7617200000000000  5.6921900000000001
  2.2405599999999999  1.6486300000000000 22.4723000000000006
  7.4997199999999999  7.0423499999999999 29.9171000000000014
  8.4217099999999991  7.0537099999999997 29.5285000000000011
  3.7294399999999999  4.2071600000000000  1.5032099999999999
  3.0285600000000001  4.4201800000000002  2.1440899999999998
  2.8379900000000000  3.6219399999999999  2.6224400000000001
  2.8178500000000000  0.5126590000000000  5.1402700000000001
  7.1267800000000001  5.7531299999999996  4.6570400000000003
  6.3496199999999998  5.2787199999999999  4.4032700000000000
  6.7810199999999998  6.5506500000000001  5.0720700000000001
  8.8940400000000004  7.3248899999999999 24.0161000000000016
  8.5436300000000003  6.4253299999999998 24.1963000000000008
  1.4428900000000000  7.6879200000000001 23.4010999999999996
  1.3496400000000000  7.3486700000000003 22.4715999999999987
  7.1399999999999997  3.9343499999999998 25.6689000000000007
  6.2789200000000003  4.1533899999999999 26.0858999999999988
  9.7213700000000003  2.5727400000000000  5.5794499999999996
  5.5880299999999998  4.0853200000000003 25.4350999999999985
  9.6045499999999997  3.3977900000000001  5.1417500000000000
  2.3361000000000001  7.2663300000000000 23.5783999999999985
  9.3472100000000005  4.0783899999999997  5.7551699999999997
  6.0335900000000002  2.0649999999999999 28.0581999999999994
  6.7617500000000001  2.6060099999999999 28.0472000000000001
  5.2718299999999996  2.6086700000000000 27.7300000000000004
  7.9206000000000003  4.1851000000000003 22.9497999999999998
  8.7478300000000004  3.8643299999999998 23.4106999999999985
  6.5403799999999999  6.4705899999999996 28.1112000000000002
  6.3452799999999998  6.6697300000000004 27.2226999999999997
  6.4606800000000000  1.1123799999999999  1.1816400000000000
  6.7999000000000001  0.8498930000000000  0.2786420000000000
  8.2625100000000007  4.8231999999999999 22.2713999999999999
  6.3452200000000003  1.3181799999999999 29.6926999999999985
  3.4240100000000000  3.6469800000000001 27.7626999999999988
  2.9720499999999999  4.1675500000000003 26.9833999999999996
  3.4252300000000000  4.1681999999999997 28.5762000000000000
  7.6105299999999998  0.4909470000000000  5.2544100000000000
  7.4429900000000000  8.7499800000000008  6.0073699999999999
  3.6512899999999999  1.6407900000000000  2.8805999999999998
  6.5628700000000002  0.1823060000000000  6.2394100000000003
  3.9005800000000002  1.6012400000000000  1.9607500000000000
  3.0221499999999999  1.2911200000000000  1.5613300000000001
  8.0319400000000005  1.6139300000000001 23.1582000000000008
  4.9016799999999998  0.1434210000000000  6.7162400000000000
  4.3227599999999997  8.3171099999999996  7.1477599999999999
  5.3099600000000002  0.6090710000000000  7.4889900000000003
  9.7539899999999999  5.8132400000000004 28.8140000000000001
  0.0701472000000000  5.9364999999999997 29.6448999999999998
  0.3377500000000000  1.6517999999999999  0.5585970000000000
  9.6531800000000008  2.0958100000000002  0.5843750000000000
  1.3053300000000001  1.4244399999999999  3.3319200000000002
  8.9503299999999992  1.5702700000000001  0.2363390000000000
  1.6885200000000000  2.2601499999999999  3.7549299999999999
 10.3699999999999992  6.1423399999999999 28.1555000000000000
  0.8244060000000000  2.6909800000000001  4.0579000000000001
  6.6835699999999996  1.4158800000000000  2.8881000000000001
  6.3539000000000003  2.1533899999999999  3.4701200000000001
  6.1175899999999999  0.6523380000000000  3.2240000000000002
  4.8955700000000002  0.8033790000000000 23.3320000000000007
  6.2154900000000000  5.7693199999999996 26.7634000000000007
  4.7207100000000004  6.3433900000000003 23.5985000000000014
  4.2035600000000004  7.0256400000000001 23.9815000000000005
  1.7262800000000000  8.2544799999999992 30.3732000000000006
  4.5248499999999998  7.8521099999999997 23.6598000000000006
  1.5313900000000000  0.1108100000000000  0.8514180000000000
  4.1882599999999996  1.4553499999999999 23.2158000000000015
  1.6062600000000000  8.3936799999999998  1.6414000000000000
  4.7852499999999996  3.6183000000000001  0.2978840000000000
  5.4821900000000001  4.2051699999999999  0.6488330000000000
  4.6861600000000001  2.7624900000000001  0.7732350000000000
  1.7433700000000001  5.2554100000000004  1.1660600000000001
  4.7522000000000002  3.8644099999999999 23.0045999999999999
  5.3344699999999996  4.4861800000000001 23.5045000000000002
  1.0942600000000000  3.2358500000000001 23.9049000000000014
  6.2268100000000004  4.3313600000000001 23.0879000000000012
  0.7983980000000001  4.0399000000000003 24.3705999999999996
 10.1168999999999993  3.6402199999999998 24.8566000000000003
  8.5732900000000001  1.1812199999999999 23.8271000000000015
  8.2581100000000003  0.2498760000000000 23.8484000000000016
  5.4594199999999997  0.8134130000000001 22.5336999999999996
  6.7615999999999996  5.3742599999999996  1.5575000000000001
  6.9873000000000003  6.0315799999999999  0.8546100000000000
  7.6334999999999997  5.0314600000000000  1.8394100000000000
  1.1135999999999999  6.9267300000000001 26.8172999999999995
  0.7285270000000000  7.4975199999999997 26.1604999999999990
  1.6207100000000001  6.2599600000000004 26.3454000000000015
  2.7108599999999998  5.1082200000000002 25.5481000000000016
  3.3801800000000002  5.4450099999999999 24.9097000000000008
  1.9933200000000000  4.5303899999999997 25.0179000000000009
  2.7674300000000001  7.1254499999999998  2.7238300000000000
  2.2509800000000002  7.5090100000000000  3.4814600000000002
  2.4794600000000000  6.1874500000000001  2.7126899999999998
 10.1668000000000003  0.5005170000000000 28.1183000000000014
  0.7785760000000000  0.7366180000000000 27.5106999999999999
  9.4169999999999998  0.3833880000000000 27.4893000000000001
