Cu  O  H  O  H  O  H  O  H  O  H  O  H  O  H  O  H  O  H  O  H  O  H  O  H  O  H  O  H  O  H  O  H  O  H  O  H  O  H  O  H  O  H  O  H  O  H  O  H  O  H  O  H  O  H  O  H  O  H  O  H  O  H  O  H  O  H  O  H  O  H  O  H  O  H  O  H  O  H  O  H  O  H  O  H  O  H  O  H  O  H  O  H  O  H  O  H  O  H  O  H 
 1.0000000000000000
    10.1403771778044529    0.0000000000000000    0.0000000000000000
     0.0000000000000000    8.7818242399346058    0.0000000000000000
     0.0000000000000000    0.0000000000000000   30.1311271579000000
 Cu  O   H   O   H   O   H   O   H   O   H   O   H   O   H   O   H   O   H   O   H   O   H   O   H   O   H   O   H   O   H   O   H   O   H   O   H   O   H   O   H   O   H   O   H   O   H   O   H   O   H   O   H   O   H   O   H   O   H   O   H   O   H   O   H   O   H   O   H   O   H   O   H   O   H   O   H   O   H   O   H   O   H   O   H   O   H   O   H   O   H   O   H   O   H   O   H   O   H   O   H  
  96   1   2   1   2   1   2   1   2   1   2   1   2   1   2   1   2   1   2   1   2   1   2   1   2   1   2   1   2   1   2   1   1   1   2   1   2   1   3   1   2   1   2   1   2   1   1   1   2   1   2   1   2   1   2   1   2   1   1   1   2   1   3   1   2   1   2   1   2   1   2   1   2   1   2   1   2   1   2   1   2   1   2   1   4   1   2   1   1   1   2   1   2   1   2   1   2   1   2   1   2
Cartesian
  7.0019999999999998  1.2236499999999999  9.8429699999999993
  9.3904899999999998  1.0717800000000000  9.9281799999999993
  1.9097500000000001  1.0587599999999999  9.9150799999999997
  4.5867199999999997  1.0710800000000000 10.0252999999999997
  8.3324099999999994  3.3073000000000001 10.0024999999999995
  0.5785510000000000  3.1263600000000000  9.7952300000000001
  3.1803599999999999  3.2561599999999999 10.0412999999999997
  5.6351100000000001  3.2570999999999999  9.9298800000000007
  9.5195399999999992  5.4266800000000002  9.8716100000000004
  1.7742000000000000  5.3676399999999997  9.8797999999999995
  4.3413700000000004  5.5001499999999997  9.9032499999999999
  6.9363999999999999  5.4559199999999999  9.7135400000000001
  0.6588160000000000  7.5982099999999999  9.9266799999999993
  3.1827299999999998  7.6876600000000002  9.9972600000000007
  5.8322799999999999  7.7376600000000000  9.8646999999999991
  8.2647600000000008  7.6410700000000000  9.9650099999999995
  5.6420100000000000  1.8559399999999999 12.0005000000000006
  8.1936499999999999  1.8048100000000000 11.9963999999999995
  0.7175710000000000  1.7947599999999999 11.9682999999999993
  3.0831800000000000  1.7255400000000001 12.0417000000000005
  6.8829599999999997  4.1553899999999997 12.0458999999999996
  9.6053499999999996  4.0388700000000002 11.9981000000000009
  1.8106800000000001  3.9977600000000000 11.8876000000000008
  4.3508100000000001  4.0647599999999997 11.9551999999999996
  8.3333999999999993  6.1346600000000002 11.9456000000000007
  0.7082950000000000  6.2798400000000001 11.8945000000000007
  3.1733500000000001  6.1678600000000001 11.9808000000000003
  5.5545700000000000  6.2058299999999997 11.9791000000000007
  9.4767700000000001  8.4065999999999992 11.9818999999999996
  1.9335700000000000  8.4222699999999993 12.0579999999999998
  4.4971399999999999  8.3687100000000001 12.0706000000000007
  7.0645899999999999  8.3440700000000003 11.8535000000000004
  5.7039600000000004  0.3659090000000000 14.0305999999999997
  8.2390600000000003  0.3659090000000000 14.0305999999999997
  0.6337739999999999  0.3659090000000000 14.0305999999999997
  3.1688700000000001  0.3659090000000000 14.0305999999999997
  6.9715100000000003  2.5613700000000001 14.0305999999999997
  9.5066000000000006  2.5613700000000001 14.0305999999999997
  1.9013199999999999  2.5613700000000001 14.0305999999999997
  4.4364200000000000  2.5613700000000001 14.0305999999999997
  8.2390600000000003  4.7568200000000003 14.0305999999999997
  0.6337739999999999  4.7568200000000003 14.0305999999999997
  3.1688700000000001  4.7568200000000003 14.0305999999999997
  5.7039600000000004  4.7568200000000003 14.0305999999999997
  9.5066000000000006  6.9522800000000000 14.0305999999999997
  1.9013199999999999  6.9522800000000000 14.0305999999999997
  4.4364200000000000  6.9522800000000000 14.0305999999999997
  6.9715100000000003  6.9522800000000000 14.0305999999999997
  6.9715100000000003  1.0977300000000001 16.1005000000000003
  9.5066000000000006  1.0977300000000001 16.1005000000000003
  1.9013199999999999  1.0977300000000001 16.1005000000000003
  4.4364200000000000  1.0977300000000001 16.1005000000000003
  8.2390600000000003  3.2931800000000000 16.1005000000000003
  0.6337739999999999  3.2931800000000000 16.1005000000000003
  3.1688700000000001  3.2931800000000000 16.1005000000000003
  5.7039600000000004  3.2931800000000000 16.1005000000000003
  9.5066000000000006  5.4886400000000002 16.1005000000000003
  1.9013199999999999  5.4886400000000002 16.1005000000000003
  4.4364200000000000  5.4886400000000002 16.1005000000000003
  6.9715100000000003  5.4886400000000002 16.1005000000000003
  0.6337739999999999  7.6840999999999999 16.1005000000000003
  3.1688700000000001  7.6840999999999999 16.1005000000000003
  5.7039600000000004  7.6840999999999999 16.1005000000000003
  8.2390600000000003  7.6840999999999999 16.1005000000000003
  5.7518000000000002  1.8586199999999999 18.1457000000000015
  8.2758500000000002  1.7706400000000000 18.1372999999999998
  0.5936370000000000  1.7789400000000000 18.1539999999999999
  3.2315399999999999  1.8625100000000001 18.2200999999999986
  7.0867899999999997  4.0042700000000000 18.1567000000000007
  9.3742500000000000  4.0609999999999999 18.1542999999999992
  1.8171600000000001  4.0984600000000002 18.0410000000000004
  4.2799199999999997  4.0227199999999996 18.2338999999999984
  8.2184200000000001  6.2044899999999998 18.2411999999999992
  0.6123490000000000  6.2831999999999999 18.1405999999999992
  3.2688199999999998  6.1168199999999997 18.0563000000000002
  5.7058799999999996  6.1495800000000003 18.3066999999999993
  9.4842800000000000  8.3755000000000006 18.3028000000000013
  1.8706600000000000  8.4177700000000009 18.1922999999999995
  4.3530899999999999  8.2972999999999999 18.1460000000000008
  7.0071000000000003  8.4295299999999997 18.1814000000000000
  5.7246699999999997  0.1988950000000000 20.1647999999999996
  8.1858799999999992  0.2672570000000000 20.2853999999999992
  0.6306730000000000  0.3182580000000000 20.3069999999999986
  3.2365800000000000  0.3220560000000000 20.3104000000000013
  7.0803599999999998  2.5028400000000000 20.2044999999999995
  9.4960900000000006  2.5265200000000001 20.2597999999999985
  1.9050400000000001  2.5805899999999999 20.0477999999999987
  4.4091600000000000  2.4619499999999999 20.3140999999999998
  8.1750500000000006  4.7413900000000000 20.3505000000000003
  0.6861670000000000  4.5749899999999997 20.0665000000000013
  3.2318699999999998  4.6919899999999997 20.3606000000000016
  5.7897200000000000  4.5623800000000001 20.2552999999999983
  9.4709800000000008  6.9355700000000002 20.3863999999999983
  1.9492799999999999  6.9303900000000001 20.1829999999999998
  4.3878500000000003  6.8703000000000003 20.3841000000000001
  6.8582500000000000  6.8059300000000000 20.2563999999999993
  6.0706800000000003  2.2845300000000002 26.6131999999999991
  5.1823300000000003  1.8925099999999999 26.4031999999999982
  6.2577499999999997  1.7673099999999999 27.4294000000000011
  9.0719899999999996  4.6721399999999997  1.2859799999999999
  9.1393699999999995  4.5601500000000001  2.2046600000000001
  8.9961800000000007  5.6065100000000001  1.1316100000000000
  9.4014600000000002  4.0732100000000004  3.9184199999999998
  4.2640000000000002  4.9703200000000001 26.5808000000000000
  8.5701099999999997  3.5720000000000001  3.8355199999999998
  2.6093400000000000  0.4091510000000000 24.1565000000000012
  2.6309200000000001  8.3613000000000000 23.6417000000000002
  2.0837900000000000  1.0236400000000001 23.6353000000000009
  7.2644900000000003  7.9150499999999999 26.5222000000000016
  7.4963699999999998  8.5146499999999996 27.3100999999999985
  7.2050900000000002  8.4921299999999995 25.7567999999999984
  0.4094810000000000  8.6712100000000003  0.1024300000000000
  1.4861300000000000  7.1691500000000001 25.3130999999999986
 -0.3507410000000000  8.1134400000000007  0.3361890000000000
  9.2018900000000006  1.6753100000000001 24.9292000000000016
  9.8877500000000005  1.2602300000000000  7.3382399999999999
  9.5492899999999992  0.8504950000000000 24.6621999999999986
  0.8804910000000000  7.5372000000000003 25.9690000000000012
  0.8221750000000000  4.3453299999999997  0.0907534000000000
  0.2517030000000000  6.8576899999999998 25.8477999999999994
  1.3156200000000000  2.7147999999999999 23.4617000000000004
  1.2382800000000000  3.2748300000000001 22.7089999999999996
  8.1844599999999996  4.3382399999999999 27.4841000000000015
  7.3519300000000003  4.7688100000000002 27.4993000000000016
  6.8012899999999998  4.1313000000000004 27.0299000000000014
  6.8057699999999999  3.6116700000000002 24.2286999999999999
  1.7307300000000001  4.1223000000000001  0.2431600000000000
  2.0433500000000002  3.6486600000000000 29.5990000000000002
  7.9711699999999999  7.4689300000000003  7.2271200000000002
  2.7849900000000001  6.1882099999999998  6.1363899999999996
  2.9710800000000002  7.0417100000000001  6.6305300000000003
  1.8390599999999999  5.9743700000000004  6.0100400000000000
  9.2819099999999999  1.3737200000000001  6.6160500000000004
  0.9022750000000000  8.8575099999999996  0.9368760000000000
  8.8239800000000006  2.2229600000000000  6.8997299999999999
  3.2461300000000000  6.3608799999999999  0.3066000000000000
  3.2578800000000001  6.9711699999999999 29.6873000000000005
  2.5640100000000001  5.6205900000000000  0.2889990000000000
  3.6898700000000000  4.6408800000000001 27.2817000000000007
  8.3584800000000001  1.8349800000000001 24.3963000000000001
  3.8622000000000001  5.2234200000000000 28.0566999999999993
  4.4002100000000004  0.9916970000000001  3.8526400000000001
  5.0207899999999999  1.7255900000000000  3.7162799999999998
  5.1891600000000002  7.2023999999999999 28.0550999999999995
  5.5233299999999996  7.6383299999999998 28.8683000000000014
  5.9027599999999998  7.3704700000000001 27.4143000000000008
  1.5009300000000001  2.7135400000000001  4.0669899999999997
  1.9960700000000000  3.1745500000000000  3.4031300000000000
  2.1466200000000000  2.4841400000000000  4.7347700000000001
  2.0107100000000000  8.6372900000000001  2.4283299999999999
  2.4480000000000000  7.8334999999999999  2.6860599999999999
  2.6543999999999999  0.5482900000000001  2.5614599999999998
  4.7088400000000004  0.4589730000000000  4.5489800000000002
  7.6943000000000001  3.8936099999999998 23.8114999999999988
  7.4349499999999997  4.0461799999999997 22.8938999999999986
  4.8167499999999999  4.6817000000000002 24.1219000000000001
  4.8500500000000004  5.4615000000000000 24.7392000000000003
  5.5457500000000000  6.2284100000000002 24.5244999999999997
  0.4016850000000000  2.4343300000000001 23.6915000000000013
  5.7216800000000001  5.8332699999999997  0.7499200000000000
  4.7332999999999998  6.0182599999999997  0.5784110000000000
  5.9996799999999997  4.9425400000000002  0.6137170000000000
  8.2678799999999999  7.4499500000000003  6.2772899999999998
  8.5574399999999997  8.3656400000000009  6.2110300000000001
  6.9310000000000000  2.9847399999999999  3.4488300000000001
  6.9523799999999998  2.8963600000000000  2.4478300000000002
  2.3558699999999999  1.5748599999999999 27.7032999999999987
  1.9051199999999999  2.4306399999999999 28.0122999999999998
  5.1792699999999998  7.8498200000000002  5.9399899999999999
  2.4608500000000002  3.1131300000000000 27.5945000000000000
  5.6222300000000001  7.8156600000000003  5.1126600000000000
  6.6998800000000003  3.9283600000000001  3.5555800000000000
  6.5426799999999998  7.9331399999999999  5.3757700000000002
  3.2784200000000001  6.4605199999999998  3.4230999999999998
  3.7902000000000000  5.6836500000000001  3.1898200000000001
  3.1206999999999998  6.4949700000000004  4.3690600000000002
  3.9527100000000002  8.3271499999999996  7.1683399999999997
  3.6341999999999999  0.4429100000000000  7.2060800000000000
  3.2282400000000000  3.6754300000000000  1.5408999999999999
  4.1057300000000003  3.3214399999999999  1.8063600000000000
  5.9592599999999996  6.3874500000000003  4.0472999999999999
  6.3207500000000003  5.7943899999999999  3.4216000000000002
  4.4610700000000003  8.1031200000000005  8.0527599999999993
  5.9186399999999999  5.9599599999999997  2.5271100000000000
  5.3766800000000003  8.3715200000000003  1.6101600000000000
  6.2587299999999999  8.0871600000000008  1.8146400000000000
  5.1906999999999996 -0.1999630000000000  2.5130599999999998
  6.4758899999999997  1.4827500000000000 22.5735999999999990
  6.4162100000000004  1.3098099999999999 23.5460999999999991
  4.0287199999999999  4.9565299999999999  6.2708000000000004
  5.5399900000000004  1.7200899999999999 23.7268000000000008
  4.6746900000000000  4.2263599999999997  6.4985499999999998
  4.6005700000000003  4.3055899999999996  7.4680900000000001
  7.0640499999999999  6.5291199999999998 30.1399000000000008
  7.6813300000000000  0.5472440000000000 28.7855999999999987
  8.0482399999999998  8.4914500000000004 29.1570000000000000
  8.3583400000000001  1.1967699999999999 28.4694000000000003
  6.5004299999999997  7.1941499999999996 23.5520999999999994
  6.6303200000000002  8.1499199999999998 23.5195000000000007
  3.9814400000000001 -0.1198530000000000 26.9569000000000010
  3.7715100000000001  0.6856430000000000 26.4858000000000011
  3.2877399999999999  2.7897200000000000  6.7608100000000002
  3.2498499999999999  0.3690960000000000 25.6681999999999988
  2.6423399999999999  2.0939399999999999  6.6394200000000003
  6.4663199999999996  6.8352399999999998 22.6709999999999994
  1.9972200000000000  2.4832100000000001  7.3617100000000004
  6.9364600000000003  3.2352500000000002  0.4431120000000000
  6.9009000000000000  2.6929500000000002 29.7567999999999984
  7.8293100000000004  3.7009300000000001  0.4049280000000000
  9.6638800000000007  0.3356900000000000  3.8702800000000002
  4.2667500000000000  2.6765099999999999  1.1264000000000001
  9.3293400000000002  7.3699700000000004 23.8461999999999996
  9.4802000000000000  8.2434399999999997 23.4349999999999987
  9.1412600000000008  2.3929900000000002 26.7418000000000013
  9.5403300000000009  8.1032700000000002 22.4485999999999990
  9.3462200000000006  2.7223400000000000 27.6661000000000001
  0.3972280000000000  0.3101740000000000  3.5035400000000001
  0.2386890000000000  2.7722899999999999 27.7058000000000000
  2.3909199999999999  8.3424200000000006 28.5530000000000008
  2.0115699999999999  8.0824300000000004 27.6814000000000000
  1.6810600000000000  8.4412299999999991 29.1888000000000005
 -0.1701260000000000  3.3078099999999999  3.9935399999999999
  8.3842199999999991  6.2545999999999999 25.7646000000000015
  9.0478100000000001  5.7879500000000004 25.2105999999999995
  3.3855400000000002  5.9459000000000000 24.4103999999999992
  8.5483700000000002  5.1060400000000001 24.7423999999999999
  2.4921799999999998  6.2516499999999997 24.0760000000000005
  2.6445699999999999  5.9817099999999996 23.1677999999999997
  7.8743699999999999  6.7662699999999996 29.5683000000000007
  7.5903600000000004  6.2813200000000000 28.7898999999999994
  9.6406600000000005  1.0013700000000001  4.5630199999999999
  7.3305800000000003  3.6428199999999999  6.9545300000000001
  6.7988900000000001  3.2364600000000001  7.6612900000000002
  6.6114899999999999  3.9544999999999999  6.3521900000000002
  4.7549700000000001  1.2287300000000001 29.5513000000000012
  4.7692300000000003  0.5657219999999999  0.1737670000000000
  4.0813899999999999  0.8950660000000000 28.9453999999999994
  8.0944099999999999  7.4572700000000003  2.1117100000000000
  7.6861400000000000  6.9065700000000003  2.8334500000000000
  8.6010899999999992  8.0761000000000003  2.6456499999999998
  4.3052400000000004  3.0651500000000000 23.3732000000000006
  3.4409500000000000  2.7045900000000000 23.6619999999999990
  4.1631999999999998  3.4687600000000001 22.5167999999999999
  0.2699080000000000  5.9100900000000003  5.7129300000000001
  9.6332299999999993  6.4513600000000002  5.9698500000000001
 10.0184999999999995  5.3727499999999999  4.9307100000000004
