Cu O  H  O  H  O  H  O  H  O  H  O  H  O  H  O  H  O  H  O  H  O  H  O  H  O  H  O  H  O  H  O  H  O  H  O  H  O  H  O  H  O  H  O  H  O  H  O  H  O  H  O  H  O  H  O  H  O  H  O  H  O  H  O  H  O  H  O  H  O  H  O  H  O  H  O  H  O  H  O  H  O  H  O  H  O  H  O  H  O  H  O  H  O  H  O  H  O  H  O  H 
 1.0000000000000000
    10.1403771778044529    0.0000000000000000    0.0000000000000000
     0.0000000000000000    8.7818242399346058    0.0000000000000000
     0.0000000000000000    0.0000000000000000   30.1311271579000000
 Cu  O   H   O   H   O   H   O   H   O   H   O   H   O   H   O   H   O   H   O   H   O   H   O   H   O   H   O   H   O   H   O   H   O   H   O   H   O   H   O   H   O   H   O   H   O   H   O   H   O   H   O   H   O   H   O   H   O   H   O   H   O   H   O   H   O   H   O   H   O   H   O   H   O   H   O   H   O   H   O   H   O   H   O   H   O   H   O   H   O   H   O   H   O   H   O   H   O   H   O   H  
  96   1   2   1   2   1   2   1   2   1   2   1   2   1   2   1   2   1   2   1   2   1   2   1   2   1   2   1   2   1   2   1   1   1   2   1   2   1   3   1   2   1   2   1   2   1   1   1   2   1   2   1   2   1   2   1   2   1   1   1   2   1   3   1   2   1   2   1   2   1   2   1   2   1   2   1   2   1   2   1   2   1   2   1   4   1   2   1   1   1   2   1   2   1   2   1   2   1   2   1   2
Cartesian
  7.0529299999999999  1.2438199999999999  9.8699899999999996
  9.4855199999999993  1.1811600000000000  9.8196700000000003
  1.9298900000000001  1.1547000000000001  9.7962900000000008
  4.4576399999999996  0.9054480000000000  9.8973200000000006
  8.3829600000000006  3.2222100000000000  9.9912899999999993
  0.6070440000000000  3.3189899999999999  9.7785299999999999
  3.1027100000000001  3.2515700000000001  9.8076799999999995
  5.7868800000000000  3.3403100000000001  9.8054000000000006
  9.4961400000000005  5.5326100000000000  9.8769399999999994
  1.8432400000000000  5.4552300000000002  9.9458699999999993
  4.5084999999999997  5.5379600000000000  9.9843200000000003
  6.9648800000000000  5.5207899999999999  9.7141000000000002
  0.5737630000000000  7.7105600000000001 10.0717999999999996
  3.1315700000000000  7.7731700000000004  9.8797400000000000
  5.7732200000000002  7.7342599999999999  9.8575300000000006
  8.2616999999999994  7.7354399999999996 10.0193999999999992
  5.7697099999999999  1.9179200000000001 11.9307999999999996
  8.2641799999999996  1.7009399999999999 11.9365000000000006
  0.7224590000000000  1.7684800000000001 11.9795999999999996
  3.0950099999999998  1.8928900000000000 11.8768999999999991
  6.8433400000000004  4.0657600000000000 11.9063999999999997
  9.3953500000000005  3.9480499999999998 12.1029999999999998
  1.8963099999999999  4.0500400000000001 11.9530999999999992
  4.3970799999999999  4.0581800000000001 11.7744000000000000
  8.1203400000000006  6.2896900000000002 11.9642999999999997
  0.5835060000000000  6.2408999999999999 12.0196000000000005
  3.1990500000000002  6.2442000000000002 11.8940000000000001
  5.7388199999999996  6.2715899999999998 11.9342000000000006
  9.5409000000000006  8.4072600000000008 12.0138999999999996
  1.9496800000000001  8.5027799999999996 11.9458000000000002
  4.4282500000000002  8.4137699999999995 11.9336000000000002
  6.9448400000000001  8.4377800000000001 11.9901999999999997
  5.7039600000000004  0.3659090000000000 14.0305999999999997
  8.2390600000000003  0.3659090000000000 14.0305999999999997
  0.6337739999999999  0.3659090000000000 14.0305999999999997
  3.1688700000000001  0.3659090000000000 14.0305999999999997
  6.9715100000000003  2.5613700000000001 14.0305999999999997
  9.5066000000000006  2.5613700000000001 14.0305999999999997
  1.9013199999999999  2.5613700000000001 14.0305999999999997
  4.4364200000000000  2.5613700000000001 14.0305999999999997
  8.2390600000000003  4.7568200000000003 14.0305999999999997
  0.6337739999999999  4.7568200000000003 14.0305999999999997
  3.1688700000000001  4.7568200000000003 14.0305999999999997
  5.7039600000000004  4.7568200000000003 14.0305999999999997
  9.5066000000000006  6.9522800000000000 14.0305999999999997
  1.9013199999999999  6.9522800000000000 14.0305999999999997
  4.4364200000000000  6.9522800000000000 14.0305999999999997
  6.9715100000000003  6.9522800000000000 14.0305999999999997
  6.9715100000000003  1.0977300000000001 16.1005000000000003
  9.5066000000000006  1.0977300000000001 16.1005000000000003
  1.9013199999999999  1.0977300000000001 16.1005000000000003
  4.4364200000000000  1.0977300000000001 16.1005000000000003
  8.2390600000000003  3.2931800000000000 16.1005000000000003
  0.6337739999999999  3.2931800000000000 16.1005000000000003
  3.1688700000000001  3.2931800000000000 16.1005000000000003
  5.7039600000000004  3.2931800000000000 16.1005000000000003
  9.5066000000000006  5.4886400000000002 16.1005000000000003
  1.9013199999999999  5.4886400000000002 16.1005000000000003
  4.4364200000000000  5.4886400000000002 16.1005000000000003
  6.9715100000000003  5.4886400000000002 16.1005000000000003
  0.6337739999999999  7.6840999999999999 16.1005000000000003
  3.1688700000000001  7.6840999999999999 16.1005000000000003
  5.7039600000000004  7.6840999999999999 16.1005000000000003
  8.2390600000000003  7.6840999999999999 16.1005000000000003
  5.8018799999999997  1.8671300000000000 18.1097000000000001
  8.1811199999999999  1.7694900000000000 18.1260000000000012
  0.6106260000000000  1.8724300000000000 18.0858999999999988
  3.2258399999999998  1.7296400000000001 18.2574000000000005
  6.9834199999999997  4.1488500000000004 18.1616999999999997
  9.5948300000000000  4.2598599999999998 18.1753999999999998
  1.9259999999999999  4.0008800000000004 18.1448999999999998
  4.5074500000000004  4.0240499999999999 18.1463999999999999
  8.2419899999999995  6.2474299999999996 18.1194999999999986
  0.7073230000000000  6.2973299999999997 18.2197999999999993
  3.1591600000000000  6.2014600000000000 18.1540999999999997
  5.6635900000000001  6.2676299999999996 18.1568000000000005
  9.5390800000000002  8.3809100000000001 18.2174000000000014
  1.8959200000000000  8.3768899999999995 18.2092999999999989
  4.4107399999999997  8.3790800000000001 18.2468000000000004
  6.8685900000000002  8.3731399999999994 18.1993000000000009
  5.6734900000000001  0.4654740000000000 20.2158000000000015
  8.1788500000000006  0.2821300000000000 20.2484000000000002
  0.5995010000000000  0.4707990000000000 20.2144000000000013
  3.1496300000000002  0.4295720000000000 20.2866000000000000
  7.1337299999999999  2.6582499999999998 20.2077999999999989
  9.6432900000000004  2.6374100000000000 20.0688999999999993
  1.8793500000000001  2.5694900000000001 20.0783999999999985
  4.6367300000000000  2.6259800000000002 20.3351000000000006
  8.2818199999999997  4.8724699999999999 20.1546999999999983
  0.8358710000000000  4.8531599999999999 20.4136999999999986
  3.2185299999999999  4.7325499999999998 20.1671000000000014
  5.5758999999999999  4.8685400000000003 20.2723000000000013
  9.6719000000000008  6.9349800000000004 20.2165999999999997
  1.9784700000000000  7.0092600000000003 20.2246999999999986
  4.4042500000000002  6.9541000000000004 20.3029000000000011
  6.8533200000000001  6.9950000000000001 20.1270999999999987
  9.4459599999999995  4.8150700000000004  0.5637510000000000
  9.6930399999999999  5.3943000000000003  1.3161300000000000
  0.0547201000000000  5.0102900000000004 -0.0396642000000000
  9.9329099999999997  4.5157200000000000  3.9723000000000002
  9.8240599999999993  3.7771800000000000  3.3012199999999998
 10.0505999999999993  4.0777700000000001  4.8556400000000002
  0.3568810000000000  7.5586799999999998 28.3227000000000011
  2.9821599999999999  7.0989899999999997 23.3901000000000003
  0.1644830000000000  8.3865200000000009 27.9178999999999995
  3.9894500000000002  4.2035299999999998  0.4116040000000000
  4.4795400000000001  4.7504600000000003 29.9427999999999983
  3.5317900000000000  4.7165699999999999  1.1393400000000000
  1.8666100000000001  8.3376000000000001  7.1536000000000000
  2.5784199999999999  0.1346090000000000  7.3630599999999999
  1.4605999999999999  8.2837499999999995  8.0380099999999999
  6.2096600000000004  2.6259000000000001 27.2728999999999999
  1.2786800000000000  1.8977700000000000 27.8073000000000015
  6.5211100000000002  2.8107700000000002 26.3365000000000009
  5.4400399999999998  8.2615099999999995  0.1956640000000000
  8.2969200000000001  4.0397800000000004 25.9094000000000015
  6.0195600000000002  7.6624699999999999  0.7125030000000000
  2.0653100000000002  1.9593300000000000 28.3752999999999993
  8.0429499999999994  2.6441900000000000  2.7337899999999999
  2.0148400000000000  2.9020700000000001 28.6753000000000000
  2.3813900000000001  1.1712000000000000  3.5629300000000002
  2.6508400000000001  0.9954100000000000  2.6210800000000001
  5.8984100000000002  1.8855299999999999  4.0006100000000000
  6.1130599999999999  2.2553500000000000  3.1289799999999999
  5.3355699999999997  2.1798600000000001  2.5698099999999999
 10.5069999999999997  7.9881900000000003  2.7761000000000000
  8.9878300000000007  2.4447600000000000  2.7443800000000000
  9.2158400000000000  1.6315800000000000  3.2409200000000000
  7.0564099999999996  1.5250200000000000 22.3958000000000013
  3.7784399999999998  7.4012000000000002  4.0445200000000003
  3.2284299999999999  8.2351799999999997  4.1252899999999997
  3.2972500000000000  6.6452000000000000  3.5617600000000000
  9.0192700000000006  3.9879300000000000 26.5199999999999996
  5.3414599999999997  2.1209400000000000 27.0457000000000001
  8.6456300000000006  4.5728799999999996 27.2307999999999986
  4.0886199999999997  0.9561090000000000 27.0280999999999985
  3.2949899999999999  1.4689800000000000 27.4455999999999989
  3.9068600000000000  0.0683120000000000 27.4381999999999984
  3.9395099999999998  6.9163699999999997 23.3385999999999996
  6.0590900000000003  8.7149500000000000 29.6898000000000017
  4.2061999999999999  7.1783700000000001 22.4075999999999986
  7.4730299999999996  0.4900340000000000 28.6340000000000003
  7.2978800000000001  1.3371500000000001 28.1965000000000003
  8.4599499999999992  3.1469399999999998  6.8555000000000001
  8.8574599999999997  3.9351500000000001  6.5126999999999997
  7.6259600000000001  3.1454599999999999  6.4203500000000000
  6.9821700000000000  6.7857200000000004 23.3802999999999983
  7.1174799999999996  7.7420499999999999 23.2676000000000016
  6.8498999999999999  6.4049899999999997 22.5085000000000015
  5.6056100000000004  6.0518000000000001  5.2641799999999996
  5.0205799999999998  6.6413799999999998  4.7235800000000001
  6.0236400000000003  6.5172600000000003  6.0139600000000000
  8.1640499999999996  0.6837750000000000 29.2970000000000006
  0.6489540000000000  7.3403000000000000  2.0704699999999998
  1.0342300000000000  7.8767899999999997  1.3229599999999999
  5.0260499999999997  0.3535380000000000 25.1898000000000017
  4.8574700000000002  0.4493710000000000 24.2073999999999998
  4.5104899999999999  8.3211700000000004 23.9665999999999997
  2.5391499999999998  2.1111900000000001  3.7902600000000000
  1.3370200000000001  4.4377700000000004  6.7163800000000000
  0.8349980000000000  5.2798200000000000  6.9615099999999996
  1.7609900000000001  4.1767899999999996  7.5099499999999999
  7.0741199999999997  1.3921399999999999 23.3478999999999992
  6.2609500000000002  0.8983179999999999 23.6468999999999987
  1.2196000000000000  7.5760600000000000 23.3965999999999994
  0.4391290000000000  7.1870900000000004 23.7290999999999990
  6.2235800000000001  5.7159700000000004 28.5822000000000003
  5.3436500000000002  5.3278800000000004 28.5201999999999991
  5.1164800000000001  2.1853799999999999  6.2181600000000001
  5.5617700000000001  4.4888500000000002 28.0140999999999991
  5.3146699999999996  1.4237500000000001  5.6124200000000002
  1.0504599999999999  7.4389200000000004 22.4324000000000012
  5.7530700000000001  0.7228059999999999  6.0838000000000001
  9.3847100000000001  0.9554140000000000  0.1730510000000000
  9.3520699999999994  1.6228600000000000  0.8535120000000000
  0.1303620000000000  0.6442900000000000 -0.0164105000000000
  5.1030600000000002  3.8819100000000000  6.8296200000000002
  5.2528499999999996  4.6790000000000003  6.2421100000000003
  7.3600599999999998  6.3305199999999999  2.2179099999999998
  6.8075799999999997  6.2713299999999998  1.3524200000000000
  8.9979200000000006  6.6287399999999996  5.8379099999999999
  9.0016700000000007  5.7894399999999999  6.3489899999999997
  4.3592800000000000  4.2015599999999997  7.3845700000000001
  8.7157499999999999  5.9616899999999999  7.2511099999999997
  3.4661700000000000  7.2990000000000004 28.5283000000000015
  3.9545599999999999  6.5158899999999997 28.2758000000000003
  4.0369799999999998  7.6205499999999997 29.2700999999999993
  6.8327000000000000  8.2484099999999998  7.6994999999999996
  7.0399399999999996  8.1886500000000009  6.7587500000000000
  8.3936799999999998  6.7972700000000001 28.1861999999999995
  7.9126500000000002  8.6200100000000006  6.6595800000000001
  8.0430499999999991  5.9171300000000002 28.4196999999999989
  8.4404199999999996  5.8039699999999996 29.3248999999999995
  2.4298999999999999  4.4599700000000002 29.5285000000000011
  7.8235299999999999  6.3391900000000003  3.7240899999999999
  7.0239599999999998  6.0149100000000004  4.2151500000000004
  8.5348600000000001  5.6527000000000003  3.7957100000000001
  4.1357999999999997  4.5712000000000002 24.6099999999999994
  4.1607799999999999  5.3839499999999996 24.0973000000000006
  8.2294400000000003  6.2745400000000000 24.1036000000000001
  9.1742899999999992  6.1870200000000004 24.3597000000000001
  2.2005900000000000  4.0591100000000004  5.2960300000000000
  9.6844999999999999  5.4455600000000004 24.1265999999999998
  2.7281100000000000  3.6938100000000000  4.5034299999999998
  3.7839299999999998  3.8670399999999998 24.0463999999999984
  3.5647899999999999  3.5271400000000002  4.9699000000000000
  4.0745699999999996  1.7563500000000001  1.2887200000000001
  4.5150600000000001  1.1455700000000000  0.6740969999999999
  4.2804200000000003  2.6600400000000000  1.0076900000000000
  2.5932700000000000  5.5386600000000001  2.6126900000000002
  6.6452499999999999  5.3925900000000002  1.0845700000000000
  0.5987740000000000  2.8593700000000002 24.0433999999999983
  0.6617810000000000  3.8293699999999999 24.2243999999999993
  2.3231700000000002  0.5905290000000000 29.9241999999999990
  1.4228600000000000  4.0499799999999997 23.6991000000000014
  1.8290999999999999  8.6216000000000008  0.1218710000000000
  1.7463200000000001  5.9861700000000004  2.3906700000000001
  1.5967499999999999  8.0529700000000002 29.5215999999999994
  6.7002699999999997  3.7659899999999999 24.8120000000000012
  5.7703400000000000  4.0643099999999999 24.6969999999999992
  6.9267500000000002  3.0358000000000001 24.2017999999999986
  0.7313670000000000  6.9489799999999997 27.6510999999999996
  9.1754499999999997  1.2962000000000000 23.8712000000000018
 10.0739999999999998  1.0749599999999999 24.1568000000000005
  2.9345800000000000  2.3256199999999998 22.2999000000000009
  0.2845890000000000  0.2427650000000000 23.7497000000000007
  3.1844700000000001  2.4766499999999998 23.2433000000000014
  3.7648500000000000  1.7308900000000000 23.5345000000000013
  1.6441399999999999  4.6162099999999997 28.9582000000000015
  1.9222900000000001  4.8782399999999999 28.0868000000000002
  2.3633600000000001  4.8347300000000004  3.2394599999999998
  1.7789699999999999  5.2566100000000002 26.3119000000000014
  2.5347000000000000  5.0563399999999996 25.7635000000000005
  1.0194300000000001  4.7980299999999998 25.8623000000000012
  9.9678599999999999  0.3535170000000000  3.7734299999999998
  0.7575350000000000  0.7697100000000000  3.8170000000000002
  9.7211700000000008  0.2984470000000000  4.7052699999999996
 10.2501999999999995  1.3105599999999999 26.7932999999999986
  0.1718390000000000  1.0732400000000000 25.7451000000000008
  9.6573600000000006  2.0827000000000000 26.7083000000000013
  9.4550000000000001  0.6261170000000000  6.4163300000000003
  9.4622100000000007  1.5981200000000000  6.3612900000000003
  0.1399120000000000  0.3738270000000000  6.8399999999999999
  7.1441800000000004  7.9693399999999999 26.0560000000000009
  7.2239300000000002  8.3071800000000007 26.9043999999999990
  8.0130199999999991  7.5953900000000001 25.8461999999999996
