Cu  O  H  O  H  O  H  O  H  O  H  O  H  O  H  O  H  O  H  O  H  O  H  O  H  O  H  O  H  O  H  O  H  O  H  O  H  O  H  O  H  O  H  O  H  O  H  O  H  O  H  O  H  O  H  O  H  O  H  O  H  O  H  O  H  O  H  O  H  O  H  O  H  O  H  O  H  O  H  O  H  O  H  O  H  O  H  O  H  O  H  O  H  O  H  O  H  O  H  O  H 
 1.0000000000000000
    10.1403771778044529    0.0000000000000000    0.0000000000000000
     0.0000000000000000    8.7818242399346058    0.0000000000000000
     0.0000000000000000    0.0000000000000000   30.1311271579000000
 Cu  O   H   O   H   O   H   O   H   O   H   O   H   O   H   O   H   O   H   O   H   O   H   O   H   O   H   O   H   O   H   O   H   O   H   O   H   O   H   O   H   O   H   O   H   O   H   O   H   O   H   O   H   O   H   O   H   O   H   O   H   O   H   O   H   O   H   O   H   O   H   O   H   O   H   O   H   O   H   O   H   O   H   O   H   O   H   O   H   O   H   O   H   O   H   O   H   O   H   O   H  
  96   1   2   1   2   1   2   1   2   1   2   1   2   1   2   1   2   1   2   1   2   1   2   1   2   1   2   1   2   1   2   1   1   1   2   1   2   1   3   1   2   1   2   1   2   1   1   1   2   1   2   1   2   1   2   1   2   1   1   1   2   1   3   1   2   1   2   1   2   1   2   1   2   1   2   1   2   1   2   1   2   1   2   1   4   1   2   1   1   1   2   1   2   1   2   1   2   1   2   1   2
Cartesian
  6.8806700000000003  1.0219700000000000  9.9310600000000004
  9.5789000000000009  0.9745880000000000  9.9344599999999996
  1.9578300000000000  1.0884199999999999 10.0213000000000001
  4.3950399999999998  1.1213299999999999  9.7330100000000002
  8.0326100000000000  3.2314300000000000  9.9240499999999994
  0.4971670000000000  3.2337300000000000  9.9435099999999998
  3.2264200000000001  3.2215900000000000  9.7346900000000005
  5.7161799999999996  3.1815199999999999 10.0470000000000006
  9.4404800000000009  5.5027999999999997  9.8702400000000008
  1.7863599999999999  5.6466599999999998  9.9314400000000003
  4.4107099999999999  5.3541499999999997  9.9082899999999992
  6.9242600000000003  5.4739899999999997  9.9368700000000008
  0.6360920000000000  7.6944400000000002  9.8431999999999995
  3.1783800000000002  7.7278200000000004  9.7714499999999997
  5.5412800000000004  7.6374300000000002  9.9936900000000009
  8.0954999999999995  7.6452299999999997  9.7770100000000006
  5.7023400000000004  1.6920700000000000 11.9641999999999999
  8.1837000000000000  1.7738600000000000 11.9139999999999997
  0.6105910000000000  1.7530600000000001 11.9708000000000006
  3.2515700000000001  1.7244500000000000 11.9603999999999999
  6.9451999999999998  3.9636399999999998 12.0376999999999992
  9.3783999999999992  3.9608200000000000 11.9766999999999992
  1.8313400000000000  4.0038099999999996 11.8619000000000003
  4.3509900000000004  3.9243100000000002 11.9428000000000001
  8.2115500000000008  6.1323499999999997 11.9548000000000005
  0.5297860000000000  6.1849800000000004 11.9730000000000008
  2.9982099999999998  6.1127900000000004 11.9613999999999994
  5.6333500000000001  6.1143700000000001 12.0738000000000003
  9.4778500000000001  8.3346699999999991 11.8992000000000004
  1.9154599999999999  8.3698300000000003 11.9380000000000006
  4.3125200000000001  8.2549799999999998 12.0334000000000003
  6.9934099999999999  8.2903599999999997 11.9314000000000000
  5.7039600000000004  0.3659090000000000 14.0305999999999997
  8.2390600000000003  0.3659090000000000 14.0305999999999997
  0.6337739999999999  0.3659090000000000 14.0305999999999997
  3.1688700000000001  0.3659090000000000 14.0305999999999997
  6.9715100000000003  2.5613700000000001 14.0305999999999997
  9.5066000000000006  2.5613700000000001 14.0305999999999997
  1.9013199999999999  2.5613700000000001 14.0305999999999997
  4.4364200000000000  2.5613700000000001 14.0305999999999997
  8.2390600000000003  4.7568200000000003 14.0305999999999997
  0.6337739999999999  4.7568200000000003 14.0305999999999997
  3.1688700000000001  4.7568200000000003 14.0305999999999997
  5.7039600000000004  4.7568200000000003 14.0305999999999997
  9.5066000000000006  6.9522800000000000 14.0305999999999997
  1.9013199999999999  6.9522800000000000 14.0305999999999997
  4.4364200000000000  6.9522800000000000 14.0305999999999997
  6.9715100000000003  6.9522800000000000 14.0305999999999997
  6.9715100000000003  1.0977300000000001 16.1005000000000003
  9.5066000000000006  1.0977300000000001 16.1005000000000003
  1.9013199999999999  1.0977300000000001 16.1005000000000003
  4.4364200000000000  1.0977300000000001 16.1005000000000003
  8.2390600000000003  3.2931800000000000 16.1005000000000003
  0.6337739999999999  3.2931800000000000 16.1005000000000003
  3.1688700000000001  3.2931800000000000 16.1005000000000003
  5.7039600000000004  3.2931800000000000 16.1005000000000003
  9.5066000000000006  5.4886400000000002 16.1005000000000003
  1.9013199999999999  5.4886400000000002 16.1005000000000003
  4.4364200000000000  5.4886400000000002 16.1005000000000003
  6.9715100000000003  5.4886400000000002 16.1005000000000003
  0.6337739999999999  7.6840999999999999 16.1005000000000003
  3.1688700000000001  7.6840999999999999 16.1005000000000003
  5.7039600000000004  7.6840999999999999 16.1005000000000003
  8.2390600000000003  7.6840999999999999 16.1005000000000003
  5.8591300000000004  1.8466000000000000 18.1016000000000012
  8.3767700000000005  1.8892700000000000 18.1616000000000000
  0.6327130000000000  1.8178099999999999 18.2134999999999998
  3.2275000000000000  1.8462200000000000 18.1522000000000006
  7.0450799999999996  4.1152499999999996 18.0842999999999989
  9.5857700000000001  4.0766099999999996 18.1047000000000011
  2.0276600000000000  3.9547599999999998 18.2002999999999986
  4.5082100000000001  4.0320900000000002 18.2039000000000009
  8.3034099999999995  6.1960199999999999 18.0890999999999984
  0.7481989999999999  6.2210799999999997 18.2051000000000016
  3.2420200000000001  6.2526200000000003 18.1869000000000014
  5.8607199999999997  6.4156399999999998 18.2439000000000000
  9.5845300000000009  8.3241599999999991 18.1906999999999996
  1.9117800000000000  8.4502600000000001 18.1646999999999998
  4.4670199999999998  8.4412299999999991 18.0442000000000000
  7.0736299999999996  8.4715299999999996 18.1383000000000010
  5.6561700000000004  0.4188980000000000 20.1418999999999997
  8.1890699999999992  0.4424100000000000 20.1459000000000010
  0.6678460000000001  0.3725340000000000 20.3194000000000017
  3.3165000000000000  0.4194820000000000 20.1814000000000000
  7.0726100000000001  2.7567599999999999 20.1497999999999990
  9.5082799999999992  2.6746900000000000 20.2781999999999982
  1.9280299999999999  2.5632600000000001 20.4475000000000016
  4.5094200000000004  2.5929099999999998 20.3461999999999996
  8.3050200000000007  4.7392899999999996 20.2102000000000004
  0.7196350000000000  4.7870699999999999 20.2311000000000014
  3.2101899999999999  4.8251200000000001 20.1382000000000012
  5.8670900000000001  4.7959199999999997 20.3049999999999997
  9.5776400000000006  6.8978400000000004 20.3408000000000015
  2.0265399999999998  6.8994099999999996 20.2070000000000007
  4.6166200000000002  6.9072699999999996 20.2596999999999987
  7.2125500000000002  7.1119100000000000 20.1909999999999989
  1.1228700000000000  4.2944899999999997 26.7323999999999984
  1.0095499999999999  4.0016299999999996 25.8021999999999991
  1.3249299999999999  5.3090099999999998 26.6980000000000004
  7.9918199999999997  7.6613600000000002  3.6068799999999999
  7.2631100000000002  7.9579700000000004  4.2130299999999998
  7.7548800000000000  6.7810899999999998  3.2997800000000002
  6.1821200000000003  8.7568800000000007  5.3805199999999997
  5.4095100000000000  0.3553410000000000 28.2033999999999985
  6.1430499999999997  8.0812000000000008  6.0800299999999998
  8.1848899999999993  6.9321999999999999 23.0485000000000007
  7.7027999999999999  6.1867000000000001 22.5177000000000014
  7.4212899999999999  7.2057000000000002 23.6031000000000013
  4.1282899999999998  3.1326700000000001 26.1973999999999982
  3.4224899999999998  3.7812800000000002 25.9862000000000002
  3.5862200000000000  2.5344899999999999 26.7598999999999982
  8.1090099999999996  2.4148999999999998 29.0723999999999982
  5.9429400000000001  2.9492799999999999  1.2068600000000000
  7.5369700000000002  2.8651300000000002 29.7462000000000018
  6.7177100000000003  1.6687600000000000 26.9863000000000000
  3.3889399999999998  5.6989099999999997  6.4913699999999999
  6.5991099999999996  2.5201699999999998 26.5235999999999983
  6.6569200000000004  3.5724000000000000  1.0539900000000000
  8.5936299999999992  4.4293100000000001 28.4406999999999996
  6.0915600000000003  4.2943199999999999  0.7369490000000000
  4.8857200000000001  2.7324999999999999 23.4747999999999983
  4.6335600000000001  2.5759300000000001 24.4072999999999993
  2.8610600000000002  6.7068899999999996 26.9920000000000009
  1.9452199999999999  6.8665300000000000 26.7441999999999993
  1.7720400000000001  7.8135500000000002 26.7230999999999987
  4.9710599999999996  7.0185300000000002 23.3320000000000007
  8.3530800000000003  5.3668500000000003 28.3004999999999995
  7.6755599999999999  5.6372799999999996 28.9180999999999990
  2.6268899999999999 -0.1082710000000000  7.8189599999999997
  9.4827899999999996  8.8463700000000003  6.1887499999999998
  0.2739820000000000  8.7355099999999997  6.3305800000000003
  9.1696899999999992  7.9099300000000001  6.2735900000000004
  3.6812399999999998  6.4720199999999997  5.9193499999999997
  7.5391700000000004  2.1926000000000001 28.2207000000000008
  4.5999400000000001  6.4967699999999997  6.2621399999999996
  9.7425300000000004  5.5715899999999996  1.2781499999999999
 -0.1268800000000000  4.8408400000000000  0.6650770000000000
  8.9870300000000007  5.2153799999999997  1.8007899999999999
  5.1496500000000003  8.3687799999999992 28.8421999999999983
  7.5288300000000001  1.3173900000000001 26.5742000000000012
  4.1231999999999998  8.4598399999999998 28.9302999999999990
  3.8279800000000002  5.4620600000000001  3.4959099999999999
  3.6992400000000001  5.5619100000000001  4.4777300000000002
  9.9039300000000008  0.6578850000000001  1.1291199999999999
  0.6708900000000000  0.9361220000000000  1.1787500000000000
  9.5724599999999995  0.4085150000000000  2.0070000000000001
  0.5710460000000001  3.2641600000000000  3.1286200000000002
  0.4528650000000000  4.2138999999999998  3.4930500000000002
  1.2884500000000001  2.9022500000000000  3.7331699999999999
  2.7892999999999999  1.9351300000000000  4.8915699999999998
  3.4796600000000000  1.4456000000000000  4.3921900000000003
  2.3790300000000002  1.2352200000000000  5.4148500000000004
  4.4547900000000000  4.7206799999999998  3.4172300000000000
  4.5155399999999997  7.7933399999999997 23.6448999999999998
  4.5718100000000002  8.4784000000000006 22.9586000000000006
  5.0382400000000001  6.8182299999999998 27.2744000000000000
  4.4110899999999997  6.1867000000000001 26.8627000000000002
  4.7894899999999998  6.0390800000000002 25.9639999999999986
  5.5304700000000002  2.0745000000000000 23.1619999999999990
  5.6657900000000003  3.1656599999999999  4.0770000000000000
  6.4271300000000000  2.7237900000000002  3.6478799999999998
  5.8592399999999998  3.1511700000000000  5.0365599999999997
  2.2763300000000002  8.6554099999999998  6.8740800000000002
  2.9004300000000001  8.0178200000000004  6.4432299999999998
  6.2477299999999998  2.2505000000000002  6.9238099999999996
  5.4973999999999998  1.9680200000000001  7.4892200000000004
  1.6126600000000000  1.6230100000000001 24.3885000000000005
  1.4335000000000000  0.8675200000000000 24.9806999999999988
  2.2301899999999999  6.2889099999999996  2.8942100000000002
  1.4653499999999999  0.0999966000000000 24.3523999999999994
  1.3857400000000000  6.7506700000000004  2.9875500000000001
  6.9226000000000001  2.6455799999999998  7.5342000000000002
  0.7190230000000000  6.2349199999999998  2.4270299999999998
  8.5566899999999997  1.6966699999999999  3.8276699999999999
  9.3859999999999992  2.2886199999999999  3.6439300000000001
  8.8080800000000004  1.1323200000000000  4.5351499999999998
  9.0331499999999991  2.8850099999999999  7.1403400000000001
  9.7956800000000008  3.4556200000000001  7.4924400000000002
  8.0255799999999997  4.8788799999999997  3.7999100000000001
  7.9360700000000000  4.9488700000000003  2.8710499999999999
  7.7972999999999999  0.5211030000000000  1.0346100000000000
  7.0815000000000001  8.6519200000000005  1.1994400000000001
  9.5274500000000000  2.0490900000000001  7.1001399999999997
  7.3794000000000004  8.3504699999999996  2.0687500000000001
  4.7328000000000001  1.6714199999999999  1.1442900000000000
  5.2215900000000000  1.0527299999999999  0.6358360000000000
  4.6599100000000000  1.1418600000000001  1.9673400000000001
  9.4191400000000005 -0.0843000000000000 27.1348999999999982
  9.1354100000000003  0.5364679999999999 26.4247000000000014
  1.1552000000000000  6.2448199999999998  4.5143000000000004
  9.9350600000000000  0.9816410000000000 26.0461999999999989
  0.7546020000000000  5.5630499999999996  5.1226500000000001
  1.4493400000000001  5.0117000000000003  5.3946899999999998
  3.0121699999999998  1.7678400000000001  0.3622900000000000
  0.0087847000000000  7.7617300000000000 28.7961999999999989
  9.7988199999999992  6.8817000000000004 28.5618000000000016
  9.7889300000000006  8.0398599999999991 29.6271999999999984
  0.4704320000000000  3.6165500000000002 29.3220999999999989
  9.7957400000000003  3.0558999999999998 29.2166999999999994
  1.6663100000000000  6.4916600000000004 23.1415000000000006
  1.8704600000000000  7.2601500000000003 23.7216999999999985
  8.3475699999999993  4.0642199999999997  5.8512500000000003
  2.8468399999999998  7.3829000000000002 23.7708000000000013
  8.3081600000000009  4.9777300000000002  5.4730100000000004
  0.8962090000000000  3.7348499999999998 28.4744999999999990
  9.3109999999999999  5.1724300000000003  5.4572000000000003
  2.8908600000000000  1.1137200000000000 27.4175000000000004
  2.3722300000000001  0.9904250000000000 26.6107000000000014
  2.2750300000000001  1.2927100000000000 28.0938000000000017
  6.5646599999999999  6.3197299999999998 -0.0366703000000000
  7.0799700000000003  4.4963199999999999  2.5975600000000001
  0.4497550000000000  4.6245700000000003 23.8261000000000003
  9.6477100000000000  4.4267300000000001 23.6835999999999984
  4.4220199999999998  4.5511499999999998 28.3565000000000005
  9.2052600000000009  5.2044300000000003 23.3918999999999997
  4.2978199999999998  4.1478700000000002 29.2548999999999992
  7.1637300000000002  6.9659599999999999  0.4399300000000000
  3.6342900000000000  4.6341900000000003 29.6888000000000005
  7.8992800000000001  4.3406000000000002 25.7637999999999998
  8.7402599999999993  4.4514199999999997 25.2767000000000017
  7.9908000000000001  4.8871500000000001 26.5476999999999990
  6.4741499999999998  0.8107210000000000  5.8158799999999999
  2.9506899999999998  3.1269399999999998 23.7271999999999998
  1.9607100000000000  3.0768800000000001 23.7399999999999984
  6.4167500000000004  5.0519400000000001 24.7148000000000003
  1.7902899999999999  2.9847399999999999 22.7864000000000004
  5.6195100000000000  5.3513900000000003 24.2241999999999997
  5.3564900000000000  4.7014699999999996 23.5640999999999998
  2.0560700000000001  1.5622400000000001  0.1315120000000000
  1.5181300000000000  2.3496199999999998 29.9595999999999982
  5.8563700000000001  6.9375799999999996 29.8054999999999986
  2.3786100000000001  4.1116999999999999  6.7743900000000004
  2.6277200000000001  3.3868200000000002  6.1950399999999997
  2.7244799999999998  3.9029300000000000  7.6719299999999997
  4.4178100000000002  0.0840502000000000  3.5951399999999998
  5.0220500000000001 -0.2235850000000000  4.3274699999999999
  3.8079299999999998  8.1520399999999995  3.4462000000000002
  2.6439900000000001  6.9306099999999997 29.8070999999999984
  1.6549499999999999  7.1231000000000000 29.7901999999999987
  2.8000500000000001  7.1947299999999998  0.5988210000000000
  7.0823600000000004  1.1181399999999999 23.1215000000000011
  7.8996199999999996  1.6715000000000000 23.3372999999999990
  7.1343699999999997  0.9059350000000000 22.2042000000000002
  6.4868600000000001  6.5342599999999997  6.7817900000000000
  6.7401299999999997  6.6782199999999996  7.7374099999999997
  7.2429600000000001  6.0481400000000001  6.3198499999999997
