Cu O  H  O  H  O  H  O  H  O  H  O  H  O  H  O  H  O  H  O  H  O  H  O  H  O  H  O  H  O  H  O  H  O  H  O  H  O  H  O  H  O  H  O  H  O  H  O  H  O  H  O  H  O  H  O  H  O  H  O  H  O  H  O  H  O  H  O  H  O  H  O  H  O  H  O  H  O  H  O  H  O  H  O  H  O  H  O  H  O  H  O  H  O  H  O  H  O  H  O  H 
 1.0000000000000000
    10.1403771778044529    0.0000000000000000    0.0000000000000000
     0.0000000000000000    8.7818242399346058    0.0000000000000000
     0.0000000000000000    0.0000000000000000   30.1311271579000000
 Cu  O   H   O   H   O   H   O   H   O   H   O   H   O   H   O   H   O   H   O   H   O   H   O   H   O   H   O   H   O   H   O   H   O   H   O   H   O   H   O   H   O   H   O   H   O   H   O   H   O   H   O   H   O   H   O   H   O   H   O   H   O   H   O   H   O   H   O   H   O   H   O   H   O   H   O   H   O   H   O   H   O   H   O   H   O   H   O   H   O   H   O   H   O   H   O   H   O   H   O   H  
  96   1   2   1   2   1   2   1   2   1   2   1   2   1   2   1   2   1   2   1   2   1   2   1   2   1   2   1   2   1   2   1   1   1   2   1   2   1   3   1   2   1   2   1   2   1   1   1   2   1   2   1   2   1   2   1   2   1   1   1   2   1   3   1   2   1   2   1   2   1   2   1   2   1   2   1   2   1   2   1   2   1   2   1   4   1   2   1   1   1   2   1   2   1   2   1   2   1   2   1   2
Cartesian
  7.0041700000000002  1.3281499999999999  9.9817099999999996
  9.5111699999999999  1.2136600000000000 10.0050000000000008
  1.9602400000000000  1.2382599999999999 10.0471000000000004
  4.5141299999999998  1.1160699999999999 10.0391999999999992
  8.4077099999999998  3.4210199999999999  9.8791499999999992
  0.7378310000000000  3.4378700000000002  9.9305199999999996
  3.2639000000000000  3.3347500000000001  9.9631900000000009
  5.7923999999999998  3.5677400000000001  9.8258200000000002
  9.5948600000000006  5.5236799999999997  9.9391300000000005
  1.9055000000000000  5.5917000000000003  9.8946100000000001
  4.4470499999999999  5.7341600000000001  9.7994100000000000
  7.0224399999999996  5.5802899999999998  9.8857199999999992
  0.5663410000000000  7.8208200000000003  9.7421600000000002
  3.1717300000000002  7.7927799999999996  9.9760399999999994
  5.6696600000000004  7.7640500000000001  9.7985100000000003
  8.2311599999999991  7.7087300000000001  9.8004899999999999
  5.6827199999999998  1.8963699999999999 12.0000000000000000
  8.1253899999999994  1.8720500000000000 12.0647000000000002
  0.5667680000000000  1.9662900000000001 12.0913000000000004
  3.0893700000000002  1.9601900000000001 12.0442000000000000
  6.7658699999999996  4.1216699999999999 11.8475999999999999
  9.4111700000000003  4.0381200000000002 12.0283999999999995
  1.8878600000000001  4.0214900000000000 11.9304000000000006
  4.3766200000000000  4.0281799999999999 11.9390000000000001
  8.2316699999999994  6.2415599999999998 11.8500999999999994
  0.6404940000000000  6.4097400000000002 12.0291999999999994
  3.1165500000000002  6.2579099999999999 11.8318999999999992
  5.6810000000000000  6.1957899999999997 11.9652999999999992
  9.4634599999999995  8.4716699999999996 12.0314999999999994
  1.8916200000000001  8.4232800000000001 11.8698999999999995
  4.3721899999999998  8.4376800000000003 11.9509000000000007
  6.8881100000000002  8.3498599999999996 11.9061000000000003
  5.7039600000000004  0.3659090000000000 14.0305999999999997
  8.2390600000000003  0.3659090000000000 14.0305999999999997
  0.6337739999999999  0.3659090000000000 14.0305999999999997
  3.1688700000000001  0.3659090000000000 14.0305999999999997
  6.9715100000000003  2.5613700000000001 14.0305999999999997
  9.5066000000000006  2.5613700000000001 14.0305999999999997
  1.9013199999999999  2.5613700000000001 14.0305999999999997
  4.4364200000000000  2.5613700000000001 14.0305999999999997
  8.2390600000000003  4.7568200000000003 14.0305999999999997
  0.6337739999999999  4.7568200000000003 14.0305999999999997
  3.1688700000000001  4.7568200000000003 14.0305999999999997
  5.7039600000000004  4.7568200000000003 14.0305999999999997
  9.5066000000000006  6.9522800000000000 14.0305999999999997
  1.9013199999999999  6.9522800000000000 14.0305999999999997
  4.4364200000000000  6.9522800000000000 14.0305999999999997
  6.9715100000000003  6.9522800000000000 14.0305999999999997
  6.9715100000000003  1.0977300000000001 16.1005000000000003
  9.5066000000000006  1.0977300000000001 16.1005000000000003
  1.9013199999999999  1.0977300000000001 16.1005000000000003
  4.4364200000000000  1.0977300000000001 16.1005000000000003
  8.2390600000000003  3.2931800000000000 16.1005000000000003
  0.6337739999999999  3.2931800000000000 16.1005000000000003
  3.1688700000000001  3.2931800000000000 16.1005000000000003
  5.7039600000000004  3.2931800000000000 16.1005000000000003
  9.5066000000000006  5.4886400000000002 16.1005000000000003
  1.9013199999999999  5.4886400000000002 16.1005000000000003
  4.4364200000000000  5.4886400000000002 16.1005000000000003
  6.9715100000000003  5.4886400000000002 16.1005000000000003
  0.6337739999999999  7.6840999999999999 16.1005000000000003
  3.1688700000000001  7.6840999999999999 16.1005000000000003
  5.7039600000000004  7.6840999999999999 16.1005000000000003
  8.2390600000000003  7.6840999999999999 16.1005000000000003
  5.6311000000000000  1.7742300000000000 18.2864000000000004
  8.2226099999999995  1.7646599999999999 18.0900999999999996
  0.6731870000000000  1.7978700000000001 18.0993999999999993
  3.1780100000000000  1.8105899999999999 18.1625000000000014
  6.9710000000000001  4.1144499999999997 18.1525999999999996
  9.5217299999999998  3.9988800000000002 18.2104999999999997
  1.8039000000000001  3.9743200000000001 18.1692999999999998
  4.4253700000000000  4.0268300000000004 18.1313999999999993
  8.3081600000000009  6.1586200000000000 18.2140999999999984
  0.6172550000000000  6.3073100000000002 18.1424999999999983
  3.2644899999999999  6.2292699999999996 18.2971000000000004
  5.7535600000000002  6.1994400000000001 18.1500999999999983
  9.4671900000000004  8.4187100000000008 18.0016999999999996
  1.9968200000000000  8.3167299999999997 18.0904999999999987
  4.4632399999999999  8.3536199999999994 18.1175999999999995
  6.8913599999999997  8.4817499999999999 18.2420000000000009
  5.6961300000000001  0.2916340000000000 20.2992999999999988
  8.1684000000000001  0.3260960000000000 20.1509999999999998
  0.6742080000000000  0.3547050000000000 20.0565999999999995
  3.2054299999999998  0.5184680000000000 20.2740000000000009
  7.0789799999999996  2.4458199999999999 20.1311999999999998
  9.5479699999999994  2.4485000000000001 20.1153000000000013
  2.0499900000000002  2.6625100000000002 20.2390000000000008
  4.5257199999999997  2.5136300000000000 20.2745999999999995
  8.4307999999999996  4.7992800000000004 20.3101999999999983
  0.7429330000000000  4.8940799999999998 20.1892999999999994
  3.2543700000000002  4.7362299999999999 20.1144999999999996
  5.8688300000000000  4.7358599999999997 20.2322999999999986
  9.4899299999999993  7.0485499999999996 20.3410000000000011
  1.9005399999999999  7.0287400000000000 20.2213999999999992
  4.5009600000000001  6.9415199999999997 20.2584000000000017
  7.0950899999999999  6.9091399999999998 20.2258999999999993
  5.2294600000000004  2.4082900000000000  1.5551900000000001
  4.6727200000000000  3.2103799999999998  1.3868700000000000
  4.9789599999999998  2.2445300000000001  2.4487999999999999
  7.9223699999999999  2.2622300000000002  6.6855900000000004
  7.6136900000000001  2.0103599999999999  7.5663400000000003
  8.5925600000000006  1.6022099999999999  6.5685700000000002
  2.8223799999999999  4.8483599999999996 28.6233000000000004
  2.8177300000000001  0.7331569999999999 23.4669999999999987
  3.7438199999999999  4.5903499999999999 28.3598999999999997
  9.0218500000000006  3.9139800000000000 26.9394999999999989
  8.6354900000000008  3.5680900000000002 26.1225999999999985
  9.8066099999999992  3.3211599999999999 27.1495999999999995
  1.8670700000000000  6.2319000000000004  3.6339500000000000
  2.6679200000000001  6.6990499999999997  3.4025599999999998
  1.5373399999999999  5.9210500000000001  2.7357200000000002
  7.9011500000000003  4.0408099999999996 29.3367000000000004
  6.4189699999999998  1.6894499999999999 22.6111000000000004
  8.3581500000000002  4.8548499999999999 29.6317999999999984
  8.0881100000000004  0.5167160000000000 27.4229999999999983
  3.9456000000000002  5.0411400000000004  0.4083330000000000
  8.3799799999999998  1.1217500000000000 26.7620000000000005
  5.9952100000000002  1.4532900000000000 23.4498999999999995
  4.3565899999999997  0.5062920000000000  7.0280100000000001
  5.2026000000000003  2.0017000000000000 23.4537000000000013
 10.2780000000000005  0.2800100000000000  2.5897999999999999
  9.9519000000000002 -0.1094920000000000  1.7311500000000000
  7.2887700000000004  6.2647500000000003  2.8246199999999999
  7.6079999999999997  7.1665799999999997  2.9797199999999999
  8.3343000000000007  7.1759399999999998  3.6190899999999999
  8.0685500000000001  7.6877100000000000  1.1644600000000001
  3.8324099999999999  1.2940600000000000  6.8036300000000001
  3.1532200000000001  1.3608499999999999  7.4694599999999998
  5.1996700000000002  7.1339199999999998 23.1543999999999990
  9.4055700000000009  0.1565490000000000  6.6815199999999999
  9.6172900000000006  8.5059199999999997  7.5163700000000002
  9.3991399999999992  8.1872100000000003  6.0833700000000004
  4.0298800000000004  4.7796000000000003  1.3371000000000000
  8.1175999999999995  3.9453100000000001 28.3691999999999993
  4.5235000000000003  5.4539999999999997  1.8593500000000001
  2.9908100000000002  0.8998060000000000 26.7759000000000000
  3.0030999999999999  1.0053399999999999 25.7987000000000002
  2.5040499999999999  8.8299900000000004 26.9462000000000010
  2.8527300000000002  1.5989500000000001 23.9361999999999995
  8.6226599999999998  8.5029900000000005 27.4194999999999993
  2.2219600000000002  2.2050100000000001 23.4962000000000018
  2.2650600000000001  7.4106800000000002 22.9043999999999990
  1.3806300000000000  7.7567599999999999 23.1255999999999986
  9.5236999999999998  4.5222600000000002  6.7308599999999998
  9.9267900000000004  4.7580299999999998  7.6509299999999998
  8.7566500000000005  3.9674399999999999  6.9007699999999996
  9.5378799999999995  4.0768899999999997 23.4126000000000012
  9.2501899999999999  3.2092600000000000 23.7215999999999987
  9.6661099999999998  3.9878200000000001 22.4372000000000007
  2.3659900000000000  5.4042199999999996  6.5176100000000003
  2.0705800000000001  5.0068000000000001  7.4118800000000000
  1.8622200000000000  6.1939799999999998  6.4656900000000004
  2.4626500000000000  7.9362399999999997 22.1213000000000015
  8.2574799999999993  7.9776199999999999  0.2869040000000000
  8.1250599999999995  0.2373320000000000  0.3014590000000000
  1.1859500000000001  4.7757100000000001 23.8859999999999992
  2.0959599999999998  5.0248100000000004 24.0879000000000012
  2.1503000000000001  5.9528600000000003 23.9468999999999994
  9.4954199999999993  0.5253160000000000  3.1149399999999998
  6.2316399999999996  3.4255300000000002  4.8069800000000003
  6.8686299999999996  3.0188299999999999  5.3846100000000003
  5.6692400000000003  4.0461000000000000  5.2930700000000002
  5.7927900000000001  7.6202300000000003 23.6857000000000006
  5.8061999999999996  8.5932499999999994 23.4994000000000014
  5.8149499999999996  7.6226099999999999 26.5986000000000011
  6.6939099999999998  7.9622000000000002 26.7972000000000001
  7.5462699999999998  6.9248799999999999 24.0996999999999986
  8.4035200000000003  6.6790399999999996 24.5335000000000001
  6.8255499999999998  8.3423400000000001  6.4899199999999997
  8.4619499999999999  5.7255000000000003 24.4620999999999995
  6.0258300000000000  8.2826400000000007  5.9873200000000004
  5.5420199999999999  7.6497999999999999 25.7108999999999988
  5.6859999999999999  7.3462300000000003  5.9411699999999996
  3.7002000000000002  0.0737896000000000  0.3288540000000000
  4.4535200000000001  8.3278900000000000 30.0440000000000005
  4.1302800000000000  0.8774600000000000  0.6639110000000000
  4.2249800000000004  7.2925899999999997  2.6402299999999999
  4.8437900000000003  7.8032700000000004  3.1659700000000002
  8.6211699999999993  2.4842000000000000  2.0912500000000001
  9.0282300000000006  2.9685299999999999  2.8666000000000000
  1.1607499999999999  1.6814400000000000  2.0720299999999998
  1.9853700000000001  2.1832799999999999  2.2804500000000001
  3.8670499999999999  7.8201999999999998  1.9142200000000000
  1.7521300000000000  2.4533399999999999  3.1810100000000001
  5.2978100000000001  3.9923799999999998 28.0446999999999989
  5.9923999999999999  4.2771900000000000 28.6946000000000012
  5.4013499999999999  3.0143900000000001 28.0986000000000011
  4.0202799999999996  1.3165199999999999  5.0475700000000003
  3.6840299999999999  1.1148400000000001  4.1572300000000002
  6.9873700000000003  1.8436600000000001  1.0000700000000000
  2.7513299999999998  1.3511599999999999  4.2148399999999997
  7.9096799999999998  1.9318599999999999  0.6588349999999999
  7.9249400000000003  2.7670800000000000  0.0553862000000000
  5.9047999999999998  0.8550200000000000 27.6922999999999995
  9.7087500000000002  6.7640300000000000  4.9521300000000004
  0.4125920000000000  6.5703500000000004  4.5362299999999998
  9.6226699999999994  5.9513600000000002  5.4848999999999997
  4.7641400000000003  5.1335199999999999 23.0306999999999995
  3.7604700000000002  5.1097500000000000 23.0188999999999986
  9.7965900000000001  8.6374499999999994 22.5152000000000001
 10.0329999999999995  8.5417699999999996 23.4728999999999992
  4.1374300000000002  5.4571800000000001  6.2522399999999996
  9.5174699999999994  7.7033300000000002 23.6918000000000006
  5.1526899999999998  5.5202299999999997  6.0071399999999997
  4.9951699999999999  4.9814999999999996 22.0807000000000002
  5.5167200000000003  5.3783599999999998  6.9121100000000002
  0.7633230000000000  4.6184900000000004  1.5738900000000000
 10.2774000000000001  4.0690299999999997  2.1370900000000002
  1.4261800000000000  3.9364400000000002  1.3075300000000001
  0.8479330000000000  2.7110500000000002  4.8197400000000004
  8.1947600000000005  3.4465499999999998  3.1691799999999999
  1.0235700000000001  1.1477800000000000 29.5749999999999993
  1.0768800000000001  0.2392120000000000 29.7383999999999986
  7.0262099999999998  8.7458399999999994  3.1840899999999999
  2.0317500000000002  0.0814586000000000 29.9642000000000017
  6.7210700000000001  0.8628040000000000  3.4810699999999999
 -0.1165090000000000  2.5907000000000000  4.6318200000000003
  6.5742000000000003  0.7260750000000000  4.4137300000000002
  6.3931399999999998  4.0714300000000003 25.2622000000000000
  5.8086599999999997  4.0472700000000001 26.1245000000000012
  5.6578200000000001  4.2712500000000002 24.6315999999999988
  2.4706700000000001  5.7090600000000000 28.3256000000000014
  1.3934299999999999  8.0217100000000006 28.5979999999999990
  1.6007400000000001  7.4562200000000001 27.7683999999999997
  7.7415799999999999  1.9688200000000000 24.7669999999999995
  0.7655180000000000  7.2279600000000004 27.3719999999999999
  8.7064199999999996  1.9241699999999999 24.8952999999999989
  9.0003200000000003  1.1996199999999999 24.3297999999999988
  5.2460800000000001  1.4393899999999999 28.0417999999999985
  4.4106800000000002  1.2237600000000000 27.6515999999999984
  0.8537490000000000  3.4777600000000000  5.4528100000000004
  1.1138100000000000  2.7815900000000000 28.0057000000000009
  1.7411399999999999  2.1916500000000001 27.5794999999999995
  1.7205100000000000  3.4989900000000000 28.3038999999999987
  6.7169100000000004  4.7492400000000004  2.7094800000000001
  6.4353300000000004  4.1539599999999997  2.0230100000000002
  6.3919300000000003  4.3608300000000000  3.5703800000000001
  9.6967400000000001  5.8899100000000004 29.5442999999999998
  9.7025400000000008  6.7895599999999998 29.8837000000000010
  0.0513220000000000  5.3909000000000002  0.1155880000000000
  5.8009300000000001  7.0857099999999997 29.4905000000000008
  6.7937700000000003  7.2260900000000001 29.6573999999999991
  5.7552099999999999  6.8191100000000002 28.6115999999999993
  9.0855300000000003  6.9568300000000001 27.1613000000000007
  8.7681600000000000  6.7897600000000002 26.3234999999999992
  9.1843199999999996  6.1307999999999998 27.6307000000000009
