Cu O  H  O  H  O  H  O  H  O  H  O  H  O  H  O  H  O  H  O  H  O  H  O  H  O  H  O  H  O  H  O  H  O  H  O  H  O  H  O  H  O  H  O  H  O  H  O  H  O  H  O  H  O  H  O  H  O  H  O  H  O  H  O  H  O  H  O  H  O  H  O  H  O  H  O  H  O  H  O  H  O  H  O  H  O  H  O  H  O  H  O  H  O  H  O  H  O  H  O  H 
 1.0000000000000000
    10.1403771778044529    0.0000000000000000    0.0000000000000000
     0.0000000000000000    8.7818242399346058    0.0000000000000000
     0.0000000000000000    0.0000000000000000   30.1311271579000000
 Cu  O   H   O   H   O   H   O   H   O   H   O   H   O   H   O   H   O   H   O   H   O   H   O   H   O   H   O   H   O   H   O   H   O   H   O   H   O   H   O   H   O   H   O   H   O   H   O   H   O   H   O   H   O   H   O   H   O   H   O   H   O   H   O   H   O   H   O   H   O   H   O   H   O   H   O   H   O   H   O   H   O   H   O   H   O   H   O   H   O   H   O   H   O   H   O   H   O   H   O   H  
  96   1   2   1   2   1   2   1   2   1   2   1   2   1   2   1   2   1   2   1   2   1   2   1   2   1   2   1   2   1   2   1   1   1   2   1   2   1   3   1   2   1   2   1   2   1   1   1   2   1   2   1   2   1   2   1   2   1   1   1   2   1   3   1   2   1   2   1   2   1   2   1   2   1   2   1   2   1   2   1   2   1   2   1   4   1   2   1   1   1   2   1   2   1   2   1   2   1   2   1   2
Cartesian
  6.8657899999999996  1.2149399999999999  9.8102599999999995
  9.4151199999999999  1.3435999999999999  9.8369900000000001
  1.8952199999999999  1.0401499999999999  9.8595699999999997
  4.3395799999999998  1.1590000000000000  9.8288300000000000
  8.1984499999999993  3.3994399999999998  9.9141300000000001
  0.7558570000000000  3.4376799999999998 10.0297000000000001
  3.2442099999999998  3.4017900000000001  9.8750099999999996
  5.6902400000000002  3.4522499999999998  9.9241299999999999
  9.5132899999999996  5.4940199999999999  9.8393400000000000
  1.9151000000000000  5.5979999999999999  9.9629700000000003
  4.4938200000000004  5.6451500000000001  9.8114299999999997
  7.0210900000000001  5.4664000000000001  9.8158899999999996
  0.5369969999999999  7.6387299999999998  9.6831999999999994
  3.2080700000000002  7.7705399999999996  9.9414800000000003
  5.7137900000000004  7.7029500000000004  9.8126099999999994
  8.2222399999999993  7.7285199999999996  9.8080700000000007
  5.6917700000000000  1.9254700000000000 11.9625000000000004
  8.2373200000000004  1.8622600000000000 11.8435000000000006
  0.6376140000000000  1.9094700000000000 11.9411000000000005
  3.0522000000000000  1.8635500000000000 11.8849999999999998
  7.0527199999999999  4.1353900000000001 12.0394000000000005
  9.4676200000000001  4.0068500000000000 11.9981000000000009
  2.0226099999999998  4.0677000000000003 11.9993999999999996
  4.4405599999999996  4.2561400000000003 12.0071999999999992
  8.3880999999999997  6.2280499999999996 11.8780000000000001
  0.6372530000000000  6.3190200000000001 11.9558999999999997
  3.2560300000000000  6.2826899999999997 11.9426000000000005
  5.7681300000000002  6.3725199999999997 12.0839999999999996
  9.4843399999999995  8.6408199999999997 11.7598000000000003
  1.8775599999999999  8.4681200000000008 11.8994999999999997
  4.4904999999999999  8.5606000000000009 11.9110999999999994
  6.9481200000000003  8.4104700000000001 12.0051000000000005
  5.7039600000000004  0.3659090000000000 14.0305999999999997
  8.2390600000000003  0.3659090000000000 14.0305999999999997
  0.6337739999999999  0.3659090000000000 14.0305999999999997
  3.1688700000000001  0.3659090000000000 14.0305999999999997
  6.9715100000000003  2.5613700000000001 14.0305999999999997
  9.5066000000000006  2.5613700000000001 14.0305999999999997
  1.9013199999999999  2.5613700000000001 14.0305999999999997
  4.4364200000000000  2.5613700000000001 14.0305999999999997
  8.2390600000000003  4.7568200000000003 14.0305999999999997
  0.6337739999999999  4.7568200000000003 14.0305999999999997
  3.1688700000000001  4.7568200000000003 14.0305999999999997
  5.7039600000000004  4.7568200000000003 14.0305999999999997
  9.5066000000000006  6.9522800000000000 14.0305999999999997
  1.9013199999999999  6.9522800000000000 14.0305999999999997
  4.4364200000000000  6.9522800000000000 14.0305999999999997
  6.9715100000000003  6.9522800000000000 14.0305999999999997
  6.9715100000000003  1.0977300000000001 16.1005000000000003
  9.5066000000000006  1.0977300000000001 16.1005000000000003
  1.9013199999999999  1.0977300000000001 16.1005000000000003
  4.4364200000000000  1.0977300000000001 16.1005000000000003
  8.2390600000000003  3.2931800000000000 16.1005000000000003
  0.6337739999999999  3.2931800000000000 16.1005000000000003
  3.1688700000000001  3.2931800000000000 16.1005000000000003
  5.7039600000000004  3.2931800000000000 16.1005000000000003
  9.5066000000000006  5.4886400000000002 16.1005000000000003
  1.9013199999999999  5.4886400000000002 16.1005000000000003
  4.4364200000000000  5.4886400000000002 16.1005000000000003
  6.9715100000000003  5.4886400000000002 16.1005000000000003
  0.6337739999999999  7.6840999999999999 16.1005000000000003
  3.1688700000000001  7.6840999999999999 16.1005000000000003
  5.7039600000000004  7.6840999999999999 16.1005000000000003
  8.2390600000000003  7.6840999999999999 16.1005000000000003
  5.6341900000000003  1.7069700000000001 18.1873000000000005
  8.1757500000000007  1.7951999999999999 18.2403000000000013
  0.5036270000000000  1.7683899999999999 18.1930000000000014
  3.1790300000000000  1.6961900000000001 18.1719000000000008
  6.8316900000000000  3.9264000000000001 18.0595999999999997
  9.4552200000000006  3.9420099999999998 18.1594000000000015
  1.9780700000000000  3.8163000000000000 18.1918000000000006
  4.4040499999999998  3.8996700000000000 18.1067999999999998
  8.2492099999999997  6.0332200000000000 18.0583999999999989
  0.5953090000000000  6.0780700000000003 18.1251999999999995
  3.1625999999999999  6.0788500000000001 18.2463000000000015
  5.6431899999999997  6.1674699999999998 18.0854999999999997
  9.5088799999999996  8.4812799999999999 18.1539999999999999
  1.9304800000000000  8.2986900000000006 18.1210999999999984
  4.4349600000000002  8.3065700000000007 18.1518000000000015
  7.0215500000000004  8.4256300000000000 18.0812999999999988
  5.6998199999999999  0.2380670000000000 20.1407999999999987
  8.1876200000000008  0.4602720000000000 20.3639000000000010
  0.6332660000000000  0.2563970000000000 20.2776999999999994
  3.1695899999999999  0.2442850000000000 20.2478000000000016
  6.9267500000000002  2.5052900000000000 20.2106999999999992
  9.4823799999999991  2.5230199999999998 20.2069000000000010
  1.8817699999999999  2.4988100000000002 20.2271000000000001
  4.3652600000000001  2.4720800000000001 20.2173000000000016
  8.2338799999999992  4.6850899999999998 20.2594999999999992
  0.5447910000000000  4.7024800000000004 20.1969999999999992
  3.1232600000000001  4.6534100000000000 20.3789000000000016
  5.6347100000000001  4.6718299999999999 20.2396999999999991
  9.4398099999999996  6.9504900000000003 20.1785999999999994
  1.8372500000000000  6.8298300000000003 20.3005999999999993
  4.4766399999999997  6.7478300000000004 20.1624000000000017
  7.0798899999999998  7.0134299999999996 19.9954999999999998
  5.2761100000000001  4.6137800000000002 29.8438000000000017
  5.2344499999999998  4.2304700000000004  0.6418570000000000
  4.3243299999999998  4.7241700000000000 29.6765000000000008
  0.0297987000000000  2.7647499999999998 23.3036999999999992
  0.4813180000000000  2.5976699999999999 22.4265000000000008
  0.6305380000000000  3.4029600000000002 23.7509000000000015
  7.6132600000000004  7.4092000000000002  6.4961099999999998
  8.0436099999999993  4.5260100000000003 24.2145000000000010
  7.4449199999999998  7.3402200000000004  7.4263300000000001
  9.4731100000000001  1.0044700000000000 25.0913000000000004
  9.7246299999999994  1.7758300000000000 24.5235999999999983
  9.7689500000000002  0.2148030000000000 24.6255999999999986
  1.9636700000000000  2.2203900000000001 28.0981999999999985
  2.2603200000000001  2.5154299999999998 27.2362000000000002
  2.4712999999999998  1.4825900000000001 28.4126000000000012
  2.9572500000000002  7.1486799999999997  6.1485200000000004
  9.5352999999999994  6.4045500000000004  0.9267010000000000
  2.9423400000000002  8.1224600000000002  6.4674600000000000
  1.2502200000000001  4.7045500000000002 24.6016000000000012
  6.6787700000000001  7.9495699999999996  4.8384099999999997
  0.4457890000000000  4.7923999999999998 25.1237999999999992
  0.0508744000000000  6.9119099999999998  0.4207310000000000
  4.0014799999999999  4.8954399999999998 22.6677000000000000
  9.6423400000000008  7.5519900000000000 30.0036999999999985
  6.2303300000000004  7.7147899999999998 24.1466999999999992
  6.6652699999999996  8.6070499999999992 23.8704000000000001
  9.3783399999999997  2.6389000000000000 29.4197999999999986
  9.8846600000000002  1.7902100000000001 29.4666999999999994
  0.4828770000000000  2.0318900000000002 28.8343999999999987
  5.6599599999999999  7.7657999999999996 29.4445000000000014
  4.8870399999999998  4.7662399999999998 23.0628999999999991
  5.3779800000000000  5.4749600000000003 22.5864000000000011
  9.5924499999999995  5.4759000000000002 27.0898000000000003
  7.7433100000000001  1.9006200000000000  6.7262800000000000
  6.8520799999999999  2.2595800000000001  6.6080899999999998
  7.8815099999999996  1.6853199999999999  7.6326099999999997
  6.6553800000000001  8.3242100000000008  3.9667100000000000
  2.0983600000000000  7.1174700000000000  5.7392899999999996
  5.7354200000000004  8.1460600000000003  3.6729699999999998
  3.3653000000000000  3.9906799999999998  7.0695300000000003
  3.8938199999999998  4.6718999999999999  7.5470800000000002
  2.5857800000000002  4.4973200000000002  6.7196999999999996
  7.9067600000000002  3.8580000000000001 24.9284999999999997
  1.9144600000000001  4.4865000000000004 25.2254000000000005
  7.5242899999999997  3.0458300000000000 24.5008000000000017
  8.1440999999999999  6.1638999999999999  1.8495500000000000
  8.2486099999999993  5.9085500000000000  2.7755999999999998
  6.5716700000000001  1.6522699999999999 23.3813999999999993
  6.6124299999999998  1.9026700000000001 22.4094000000000015
  5.6098400000000002  1.4865100000000000 23.6343999999999994
  3.8144499999999999  0.3580800000000000 28.9788999999999994
  3.5532499999999998  8.4649400000000004 28.3214000000000006
  3.2708100000000000  0.2684810000000000 29.7816000000000010
  0.6007270000000000  8.6772399999999994  6.2519999999999998
  0.1318840000000000  8.3707999999999991  7.0526400000000002
 10.0124999999999993  0.1872370000000000  5.6507500000000004
  7.3478599999999998  6.6918499999999996  1.8289800000000001
  6.3028100000000000  7.2891700000000004 30.0019999999999989
  6.0228000000000002  6.3448900000000004 29.9225999999999992
  8.5122099999999996  5.8929499999999999 22.4284999999999997
  8.4616600000000002  6.0319000000000003 23.3817999999999984
  9.2760999999999996  6.5765799999999999 23.3875999999999991
  6.7119900000000001  7.0267999999999997 23.6618999999999993
  7.4248799999999999  2.2980200000000002  1.1779999999999999
  7.6355100000000000  2.7348100000000000  2.0063100000000000
  6.4719400000000000  2.0385599999999999  1.3386700000000000
  9.7396100000000008  6.3485300000000002 26.6009999999999991
  9.3773499999999999  7.0013699999999996 27.1578000000000017
  4.1464100000000004  4.8004699999999998  2.7665999999999999
  4.2888900000000003  5.6383099999999997  3.1827800000000002
  7.8654400000000004  8.2541100000000007 29.2801000000000009
  8.7110500000000002  8.3459299999999992 28.8328999999999986
  7.2761600000000000  4.5776700000000003  4.3396400000000002
  9.0169099999999993  0.4757960000000000 29.0524999999999984
  7.8835800000000003  5.1196099999999998  4.9610000000000003
  3.1736499999999999  4.8323400000000003  2.5506199999999999
  8.6576400000000007  4.5456799999999999  5.1427199999999997
  4.9404800000000000  7.0547399999999998 27.2449000000000012
  5.1048000000000000  7.7839400000000003 26.6534000000000013
  5.4177200000000001  6.3104100000000001 26.9036000000000008
  0.3328880000000000  4.3225699999999998  6.7772300000000003
  9.6923399999999997  3.9259200000000001  7.1646299999999998
  2.0257600000000000  0.8667610000000000  6.4313399999999996
  2.9886900000000001  0.9391980000000000  6.6845900000000000
  8.0289000000000001  0.5637580000000000  4.0165400000000000
  8.8503699999999998  0.9472520000000000  4.4298900000000003
  0.8393650000000000  4.5100899999999999  7.5914900000000003
  8.3769700000000000  1.3727400000000001  5.2303699999999997
  5.1942800000000000  2.3246300000000000  5.9804100000000000
  4.8488699999999998  3.0692300000000001  6.4705899999999996
  4.6280099999999997  1.5834200000000000  6.2058099999999996
  6.4662100000000002  4.4934099999999999 25.7216999999999985
  5.6020799999999999  4.9668400000000004 25.7613999999999983
  0.0893473000000000  1.5679099999999999  3.5353400000000001
  5.2178699999999996  4.8464900000000002 24.9089999999999989
  0.7946150000000000  1.9233800000000001  2.9894200000000000
  1.6400600000000001  1.8746000000000000  3.4848100000000000
  7.9852999999999996  0.6972760000000000 27.4203000000000010
  4.7198900000000004  2.0332200000000000  1.3724300000000000
  4.2932800000000002  1.7747100000000000  2.2338200000000001
  4.2870999999999997  1.6667700000000001  0.5346420000000000
  3.7452200000000002  1.8200700000000001 23.6004000000000005
  3.5925500000000001  2.1407400000000001 22.6975000000000016
  4.0669100000000000  3.9205700000000001 26.1466999999999992
  3.2231100000000001  3.3953899999999999 25.9878999999999998
  3.4753400000000001  8.3147800000000007  2.9046599999999998
  3.3074800000000000  2.9354200000000001 25.1083999999999996
  4.0886300000000002  7.7183599999999997  3.3745200000000000
  3.5917400000000002  0.8328500000000000 23.6216000000000008
  3.6856900000000001  7.5204199999999997  4.2326300000000003
  1.5727899999999999  4.4799899999999999  2.5003700000000002
  1.1545200000000000  3.6078100000000002  2.8178800000000002
  1.7007200000000000  4.3801600000000001  1.5420799999999999
  9.5544200000000004  4.8413899999999996 28.6964000000000006
  2.9346000000000001  1.4831099999999999  7.5081100000000003
  1.6073599999999999  6.8629800000000003 26.5096999999999987
  2.1949600000000000  7.5837800000000000 26.8780999999999999
  7.2057700000000002  3.2584399999999998 27.4175000000000004
  3.0942599999999998  7.3037099999999997 26.6724999999999994
  7.2556000000000003  4.0452899999999996 27.9761999999999986
  9.7401400000000002  5.4946999999999999 29.3671000000000006
  6.5055300000000003  4.1088699999999996 28.5502000000000002
  0.9710690000000000  7.1667399999999999  3.8996700000000000
  0.3374910000000000  7.0745300000000002  4.6888399999999999
  0.8961820000000000  6.3537499999999998  3.3265699999999998
  7.7178899999999997  6.4864699999999997  6.2160399999999996
  1.4717100000000001  6.9304300000000003 23.9063000000000017
  0.7236640000000000  7.4702200000000003 23.6846999999999994
  6.2107599999999996  0.8893219999999999 26.1326999999999998
  0.8927700000000000  7.7152500000000002 22.7618000000000009
  5.2215900000000000  0.7314889999999999 25.9366999999999983
  4.8880100000000004  1.5404599999999999 26.2913999999999994
  7.5983499999999999  1.4361200000000001 26.9377999999999993
  8.3053699999999999  1.4082699999999999 26.2460999999999984
  8.6232399999999991  4.7018199999999997 28.5120000000000005
  3.3490899999999999  2.2312599999999998  3.7568199999999998
  3.5223300000000002  3.2206199999999998  3.4692300000000000
  3.8870100000000001  2.0564900000000002  4.5422300000000000
  2.4331399999999999  4.4860300000000004 29.7088999999999999
  2.1004900000000002  3.6471300000000002 29.3843999999999994
  1.7954300000000001  5.0904600000000002 29.2962999999999987
  1.9714100000000001  0.3226840000000000  1.1784900000000000
  1.5448599999999999  8.2227800000000002  1.1814199999999999
  1.2569600000000001  0.9715370000000000  1.3908199999999999
  3.7401800000000001  7.8979900000000001 23.3571999999999989
  3.8309099999999998  7.8168100000000003 22.4011999999999993
  4.6742400000000002  7.8380900000000002 23.7040000000000006
  6.2859400000000001  3.3791500000000001  3.6834300000000000
  5.5634699999999997  3.8185799999999999  3.1164499999999999
  5.8730099999999998  2.8314800000000000  4.3506499999999999
