Cu  O  H  O  H  O  H  O  H  O  H  O  H  O  H  O  H  O  H  O  H  O  H  O  H  O  H  O  H  O  H  O  H  O  H  O  H  O  H  O  H  O  H  O  H  O  H  O  H  O  H  O  H  O  H  O  H  O  H  O  H  O  H  O  H  O  H  O  H  O  H  O  H  O  H  O  H  O  H  O  H  O  H  O  H  O  H  O  H  O  H  O  H  O  H  O  H  O  H  O  H 
 1.0000000000000000
    10.1403771778044529    0.0000000000000000    0.0000000000000000
     0.0000000000000000    8.7818242399346058    0.0000000000000000
     0.0000000000000000    0.0000000000000000   30.1311271579000000
 Cu  O   H   O   H   O   H   O   H   O   H   O   H   O   H   O   H   O   H   O   H   O   H   O   H   O   H   O   H   O   H   O   H   O   H   O   H   O   H   O   H   O   H   O   H   O   H   O   H   O   H   O   H   O   H   O   H   O   H   O   H   O   H   O   H   O   H   O   H   O   H   O   H   O   H   O   H   O   H   O   H   O   H   O   H   O   H   O   H   O   H   O   H   O   H   O   H   O   H   O   H  
  96   1   2   1   2   1   2   1   2   1   2   1   2   1   2   1   2   1   2   1   2   1   2   1   2   1   2   1   2   1   2   1   1   1   2   1   2   1   3   1   2   1   2   1   2   1   1   1   2   1   2   1   2   1   2   1   2   1   1   1   2   1   3   1   2   1   2   1   2   1   2   1   2   1   2   1   2   1   2   1   2   1   2   1   4   1   2   1   1   1   2   1   2   1   2   1   2   1   2   1   2
Cartesian
  7.0276800000000001  1.0195399999999999  9.9030199999999997
  9.6053499999999996  1.0839700000000001  9.9755500000000001
  1.9492499999999999  1.1973400000000001 10.0135000000000005
  4.3686100000000003  1.0435900000000000  9.8633500000000005
  8.1062200000000004  3.3893000000000000  9.7574500000000004
  0.4795980000000000  3.3444799999999999  9.7705800000000007
  3.1755300000000002  3.3519399999999999  9.9049300000000002
  5.6497599999999997  3.3356599999999998  9.9222000000000001
  9.4011200000000006  5.6812600000000000  9.9379799999999996
  1.8721399999999999  5.5097199999999997  9.9662400000000009
  4.2764600000000002  5.3932500000000001  9.8746700000000001
  6.9387400000000001  5.5606700000000000  9.8175100000000004
  0.7409960000000000  7.6338200000000001  9.9162999999999997
  3.2018800000000001  7.5818700000000003  9.8494200000000003
  5.6336199999999996  7.7446900000000003 10.0104000000000006
  8.4581199999999992  7.7669699999999997 10.0387000000000004
  5.7346800000000000  1.8309800000000001 11.8790999999999993
  8.3064300000000006  1.8306300000000000 11.8691999999999993
  0.6597960000000000  1.8865099999999999 11.9785000000000004
  3.2220300000000002  1.7840900000000000 11.9939999999999998
  6.8898799999999998  3.9969500000000000 11.9552999999999994
  9.5215200000000006  4.0220700000000003 11.9441000000000006
  1.8415800000000000  3.9322200000000000 11.8558000000000003
  4.5301900000000002  3.9671300000000000 11.9499999999999993
  8.1931600000000007  6.1847200000000004 12.0345999999999993
  0.7090510000000000  6.1615200000000003 11.9797999999999991
  3.2394900000000000  6.1258400000000002 11.9412000000000003
  5.7680699999999998  6.1644199999999998 12.0052000000000003
  9.7169100000000004  8.3841199999999994 12.0747000000000000
  2.1462699999999999  8.4410000000000007 12.0961999999999996
  4.5974000000000004  8.4098199999999999 12.0397999999999996
  7.0573399999999999  8.4014100000000003 11.9702000000000002
  5.7039600000000004  0.3659090000000000 14.0305999999999997
  8.2390600000000003  0.3659090000000000 14.0305999999999997
  0.6337739999999999  0.3659090000000000 14.0305999999999997
  3.1688700000000001  0.3659090000000000 14.0305999999999997
  6.9715100000000003  2.5613700000000001 14.0305999999999997
  9.5066000000000006  2.5613700000000001 14.0305999999999997
  1.9013199999999999  2.5613700000000001 14.0305999999999997
  4.4364200000000000  2.5613700000000001 14.0305999999999997
  8.2390600000000003  4.7568200000000003 14.0305999999999997
  0.6337739999999999  4.7568200000000003 14.0305999999999997
  3.1688700000000001  4.7568200000000003 14.0305999999999997
  5.7039600000000004  4.7568200000000003 14.0305999999999997
  9.5066000000000006  6.9522800000000000 14.0305999999999997
  1.9013199999999999  6.9522800000000000 14.0305999999999997
  4.4364200000000000  6.9522800000000000 14.0305999999999997
  6.9715100000000003  6.9522800000000000 14.0305999999999997
  6.9715100000000003  1.0977300000000001 16.1005000000000003
  9.5066000000000006  1.0977300000000001 16.1005000000000003
  1.9013199999999999  1.0977300000000001 16.1005000000000003
  4.4364200000000000  1.0977300000000001 16.1005000000000003
  8.2390600000000003  3.2931800000000000 16.1005000000000003
  0.6337739999999999  3.2931800000000000 16.1005000000000003
  3.1688700000000001  3.2931800000000000 16.1005000000000003
  5.7039600000000004  3.2931800000000000 16.1005000000000003
  9.5066000000000006  5.4886400000000002 16.1005000000000003
  1.9013199999999999  5.4886400000000002 16.1005000000000003
  4.4364200000000000  5.4886400000000002 16.1005000000000003
  6.9715100000000003  5.4886400000000002 16.1005000000000003
  0.6337739999999999  7.6840999999999999 16.1005000000000003
  3.1688700000000001  7.6840999999999999 16.1005000000000003
  5.7039600000000004  7.6840999999999999 16.1005000000000003
  8.2390600000000003  7.6840999999999999 16.1005000000000003
  5.6419400000000000  1.7599600000000000 18.2478000000000016
  8.1810100000000006  1.7453200000000000 18.1851999999999983
  0.6457550000000000  1.8006700000000000 18.1888000000000005
  3.0958399999999999  1.8724600000000000 18.1695999999999991
  7.0710199999999999  4.0175799999999997 18.2506999999999984
  9.5859600000000000  4.0765099999999999 18.1479999999999997
  1.8759999999999999  3.9977600000000000 18.3048999999999999
  4.4204400000000001  4.0221900000000002 18.3067999999999991
  8.2698400000000003  6.2041399999999998 18.1981999999999999
  0.7556690000000000  6.2709900000000003 18.1263000000000005
  3.2047699999999999  6.2329999999999997 18.1951999999999998
  5.7939699999999998  6.2775800000000004 18.0633000000000017
  9.4680800000000005  8.3348300000000002 18.1179999999999986
  1.9502600000000001  8.4459099999999996 18.1402000000000001
  4.5276199999999998  8.3786299999999994 18.1552000000000007
  6.9043799999999997  8.4575899999999997 18.2186999999999983
  5.7450000000000001  0.4332290000000000 20.4472999999999985
  8.3568099999999994  0.3928390000000000 20.2414999999999985
  0.7344930000000000  0.4449000000000000 20.2378999999999998
  3.1718299999999999  0.3612130000000000 20.1502000000000017
  7.0468299999999999  2.5687099999999998 20.2284000000000006
  9.5117499999999993  2.5555599999999998 20.0991999999999997
  2.0121600000000002  2.6785700000000001 20.2734999999999985
  4.4397000000000002  2.6544699999999999 20.3388999999999989
  8.3742999999999999  4.7716399999999997 20.2288999999999994
  0.8000670000000000  4.8944900000000002 20.2374000000000009
  3.3163299999999998  4.7912800000000004 20.2515999999999998
  5.8563499999999999  4.8264800000000001 20.2863000000000007
  9.6256400000000006  7.0276199999999998 20.2101000000000006
  2.0507200000000001  7.0071099999999999 20.3445000000000000
  4.5613799999999998  7.0453700000000001 20.3292999999999999
  6.9983700000000004  7.0723500000000001 20.2849000000000004
  5.0580699999999998  7.6797800000000001 23.0075000000000003
  4.6657599999999997  7.5201799999999999 22.1362999999999985
  5.8664300000000003  8.1353899999999992 22.5138999999999996
  8.4446300000000001  8.2324900000000003  6.8080200000000000
  8.9533000000000005  0.3606240000000000  6.6367500000000001
  8.3296899999999994  8.1588899999999995  7.8257000000000003
  9.5270200000000003  1.6549100000000001  5.8641300000000003
  3.8747400000000001  5.4205800000000002 24.0662999999999982
  0.1424390000000000  2.0165000000000002  6.2879300000000002
  5.3175299999999996  2.8921600000000001  1.2354300000000000
  5.2210200000000002  3.2217899999999999  0.3445300000000000
  6.0781900000000002  2.3258600000000000  1.3213999999999999
  2.5622699999999998  5.5351999999999997 26.9319999999999986
  2.8231500000000000  4.7947300000000004 27.5040000000000013
  2.0878500000000000  5.0613700000000001 26.2478000000000016
  2.3474599999999999  0.5954170000000000 28.4921000000000006
  9.7823499999999992  4.4826300000000003 26.2825999999999986
  1.9449799999999999  8.6968499999999995 27.8754999999999988
  1.2151700000000001  4.0286099999999996  3.8380100000000001
  5.2104499999999998  7.6437099999999996  2.4576400000000000
  0.3848800000000000  4.4895100000000001  3.7267199999999998
  9.9156399999999998  5.1720400000000000 26.9420999999999999
  5.7353199999999998  7.7975199999999996 27.3839000000000006
  9.2490799999999993  5.0578200000000004 27.6677999999999997
  0.3006520000000000  2.5942599999999998 29.6405999999999992
  0.9836880000000000  2.8407600000000000  0.1795510000000000
  7.5644299999999998  3.0812200000000001 25.8124000000000002
  8.4644100000000009  3.2587899999999999 25.5490999999999993
  8.5131700000000006  2.8555400000000000 24.6610000000000014
  4.7724700000000002  7.0643300000000000  8.0424299999999995
  6.1641100000000000  8.5414800000000000 27.8691999999999993
  7.0799099999999999  8.3233200000000007 28.1784999999999997
  7.1629100000000001  6.9168599999999998  2.1141100000000002
  5.6022299999999996  2.6613799999999999 24.2208000000000006
  5.3738000000000001  3.5503700000000000 23.9555000000000007
  4.8448900000000004  2.1852600000000000 23.9090999999999987
  5.2716599999999998  7.2653100000000004  3.3751000000000002
  2.9384500000000000  0.1267130000000000 29.1157000000000004
  4.9459000000000000  6.3818099999999998  3.3746000000000000
  5.0580299999999996  3.1084299999999998  5.3337599999999998
  5.9532200000000000  3.2974800000000002  5.5735799999999998
  5.0152500000000000  2.2554599999999998  4.8355699999999997
  4.7737800000000004  5.3934800000000003 23.8044000000000011
  1.4920400000000000  4.2453599999999998  4.7365899999999996
  5.0643599999999998  6.2669400000000000 23.3462999999999994
  8.6672200000000004  4.9910199999999998  3.4601199999999999
  8.2168799999999997  5.4132300000000004  2.7359200000000001
  3.9586199999999998  0.8298040000000000  4.4474799999999997
  3.2234400000000001  0.7774680000000000  5.1031899999999997
  4.2424900000000001  8.6620200000000001  4.2632099999999999
  3.0525799999999998  4.6739499999999996  6.1462300000000001
  3.7286600000000001  3.9650699999999999  5.9141100000000000
  3.5719099999999999  5.3748800000000001  6.6036299999999999
  7.6999700000000004  7.9937300000000002 24.6103999999999985
  8.4839500000000001  7.5517099999999999 24.2674999999999983
  7.6213199999999999  8.7020000000000000 23.9621999999999993
  8.2853100000000008  5.3851100000000001  4.2789200000000003
  4.7304599999999999  7.1299299999999999  7.0791599999999999
  5.4646299999999997  6.6711000000000000  6.7360800000000003
  4.5537700000000001  4.3512500000000003  4.2215699999999998
  4.5170000000000003  4.8312400000000002  3.3163000000000000
  5.1440599999999996  4.3602699999999999  2.8125399999999998
  0.3661240000000000  1.6436900000000001 29.5402999999999984
  0.4904990000000000  1.0467700000000000  2.7075999999999998
  0.7673880000000000  0.3620450000000000  3.4361799999999998
  0.9712640000000000  1.9127099999999999  2.8937599999999999
  7.7683499999999999  6.5803200000000004  1.4693400000000001
  7.5654399999999997  7.0219100000000001  0.6462790000000000
  2.8774799999999998  2.4961300000000000 23.5447999999999986
  2.4271600000000002  1.6921100000000000 23.1798999999999999
  0.6430730000000000  1.4864299999999999 26.5393000000000008
  1.0739300000000001  2.3595299999999999 26.5757000000000012
  1.9589000000000001  3.6136599999999999  2.2576700000000001
  0.8256680000000000  2.6758400000000000 27.4744999999999990
  2.0608200000000001  3.3910000000000000  1.3674900000000001
  3.2795299999999998  2.9740300000000000 22.7398999999999987
  2.9868100000000002  3.2206100000000002  1.3288500000000001
  0.7686700000000000  6.1183899999999998 29.6889000000000003
  1.5470400000000000  6.1992099999999999  0.1847560000000000
  1.1690799999999999  5.8101200000000004 28.8834000000000017
  8.6274899999999999  4.5860300000000001 29.4009999999999998
  9.2472300000000001  5.1884499999999996 29.8719999999999999
  0.3490600000000000  6.0107600000000003 24.1660000000000004
 10.1170000000000009  6.7910899999999996 23.7249000000000017
  4.5749500000000003  3.0239400000000001 28.1651999999999987
  3.7108699999999999  3.1458100000000000 28.6613000000000007
  9.0434000000000001  3.7111700000000001 29.5839999999999996
  3.0136099999999999  2.4993500000000002 28.3799999999999990
  5.9794499999999999  4.5889100000000003 29.2246999999999986
  7.0317200000000000  4.6127300000000000 29.1838000000000015
  5.7476200000000004  4.7940399999999999 28.2652000000000001
  7.9169499999999999  0.5905210000000000  4.3250200000000003
  7.9742699999999997  1.1429499999999999  3.5437400000000001
  9.7150400000000001  7.9889999999999999 29.2027000000000001
  8.9325799999999997  1.2628299999999999  3.3088799999999998
  9.0333100000000002  8.5594999999999999 28.9744999999999990
  9.1065699999999996  0.0435845000000000 27.9909999999999997
  7.9649799999999997  2.1385999999999998 22.4449000000000005
  1.4178900000000001  7.5489899999999999  3.9644499999999998
  1.9279900000000001  7.0397800000000004  3.3443200000000002
  1.3135500000000000  6.9733999999999998  4.7553700000000001
  5.3459899999999996  6.4459600000000004 26.5445999999999991
  5.7245299999999997  6.2526400000000004 25.6940999999999988
  0.9128370000000000  3.3477899999999998 25.3611000000000004
  1.0923000000000000  4.1066399999999996 24.7551999999999985
  1.6932100000000001  8.3901199999999996  6.1446800000000001
  1.7477499999999999  3.7926700000000002 24.1053999999999995
  2.4056199999999999  0.2041580000000000  6.3803799999999997
  4.4246900000000000  6.1201499999999998 26.4779000000000018
  3.1150899999999999  8.3614800000000002  6.6455700000000002
  7.4067400000000001  3.7146100000000000  6.3868799999999997
  7.6430600000000002  3.5184899999999999  7.2976000000000001
  7.6977900000000004  4.5907099999999996  6.2924300000000004
  7.5594799999999998  1.2381899999999999  0.7958860000000000
 10.0855999999999995  6.5448100000000000 22.7530999999999999
  3.5345499999999999  6.6957899999999997  1.1637700000000000
  2.8032699999999999  6.3537100000000004  1.7156400000000001
  2.0351900000000001  1.7963100000000001  6.9997100000000003
  3.0454100000000000  5.4515099999999999  2.0513900000000000
  1.4508200000000000  2.5194800000000002  7.2639399999999998
  7.6335300000000004  1.0246900000000001  1.7720600000000000
  1.8960399999999999  3.3683700000000001  7.1021299999999998
  2.1233800000000000  8.6149500000000003 23.9369000000000014
  1.3184700000000000  8.1451399999999996 23.6477000000000004
  2.9433600000000002  8.2977100000000004 23.5749999999999993
  8.8958200000000005  2.3243200000000002  5.5638199999999998
  8.9588400000000004  1.6724100000000000 26.3059000000000012
  8.9139999999999997  0.7737260000000000 26.6143999999999998
  4.2946499999999999  1.3353100000000000  1.0864600000000000
  8.4577799999999996  0.1423680000000000 25.8990000000000009
  3.7710400000000002  0.5312500000000000  1.1088100000000001
  3.0145700000000000  0.8665620000000001  1.6437800000000000
  7.9507500000000002  1.7309500000000000 23.3266999999999989
  7.0340400000000001  1.8885600000000000 23.6719000000000008
  8.2093699999999998  0.7925960000000000  0.2379930000000000
  6.9335199999999997  6.5205200000000003  5.4828200000000002
  6.5463699999999996  6.9648199999999996  4.7030799999999999
  7.4827700000000004  7.2331000000000003  5.9537100000000001
  1.0573699999999999  7.8216200000000002 26.7512000000000008
  1.2849100000000000  7.9957799999999999 25.8499000000000017
  0.7419829999999999  6.9292899999999999 26.8392000000000017
  5.3803400000000003  7.0314600000000000  0.0933553000000000
  5.5991900000000001  6.1785600000000001 29.8404999999999987
  5.4376899999999999  7.7706600000000003 29.5914999999999999
  5.9661799999999996  2.3953799999999998 27.0888999999999989
  5.4122599999999998  2.3414000000000001 26.2219000000000015
  6.0445599999999997  1.3708800000000001 27.2403000000000013
  0.5160570000000000  6.5306199999999999  6.2847299999999997
  0.8525020000000000  5.9947800000000004  7.0436600000000000
  9.9443800000000007  7.0473999999999997  6.6906200000000000
