Cu  O  H  O  H  O  H  O  H  O  H  O  H  O  H  O  H  O  H  O  H  O  H  O  H  O  H  O  H  O  H  O  H  O  H  O  H  O  H  O  H  O  H  O  H  O  H  O  H  O  H  O  H  O  H  O  H  O  H  O  H  O  H  O  H  O  H  O  H  O  H  O  H  O  H  O  H  O  H  O  H  O  H  O  H  O  H  O  H  O  H  O  H  O  H  O  H  O  H  O  H 
 1.0000000000000000
    10.1403771778044529    0.0000000000000000    0.0000000000000000
     0.0000000000000000    8.7818242399346058    0.0000000000000000
     0.0000000000000000    0.0000000000000000   30.1311271579000000
 Cu  O   H   O   H   O   H   O   H   O   H   O   H   O   H   O   H   O   H   O   H   O   H   O   H   O   H   O   H   O   H   O   H   O   H   O   H   O   H   O   H   O   H   O   H   O   H   O   H   O   H   O   H   O   H   O   H   O   H   O   H   O   H   O   H   O   H   O   H   O   H   O   H   O   H   O   H   O   H   O   H   O   H   O   H   O   H   O   H   O   H   O   H   O   H   O   H   O   H   O   H  
  96   1   2   1   2   1   2   1   2   1   2   1   2   1   2   1   2   1   2   1   2   1   2   1   2   1   2   1   2   1   2   1   1   1   2   1   2   1   3   1   2   1   2   1   2   1   1   1   2   1   2   1   2   1   2   1   2   1   1   1   2   1   3   1   2   1   2   1   2   1   2   1   2   1   2   1   2   1   2   1   2   1   2   1   4   1   2   1   1   1   2   1   2   1   2   1   2   1   2   1   2
Cartesian
  6.9333499999999999  1.0667199999999999  9.8629800000000003
  9.5074100000000001  1.0945499999999999  9.9474099999999996
  1.8294600000000001  1.0491500000000000  9.8469700000000007
  4.4024700000000001  1.2949100000000000  9.9995300000000000
  8.3286099999999994  3.2451800000000000  9.9624400000000009
  0.5553360000000001  3.5585900000000001  9.8267000000000007
  3.1984300000000001  3.2682000000000002  9.9152799999999992
  5.7953799999999998  3.4034800000000001  9.8822100000000006
  9.3378800000000002  5.6177700000000002  9.7211400000000001
  1.8224700000000000  5.5420499999999997  9.8978099999999998
  4.3464900000000002  5.5606000000000000  9.8566400000000005
  6.8445999999999998  5.6349299999999998  9.9691299999999998
  0.6367900000000000  7.8097099999999999  9.9842899999999997
  3.1603599999999998  7.8574200000000003  9.8155999999999999
  5.7411099999999999  7.7386600000000003  9.7637499999999999
  8.3192400000000006  7.7363400000000002  9.9955099999999995
  5.7186100000000000  1.9563299999999999 12.0221999999999998
  8.2696400000000008  1.7983300000000000 11.9626000000000001
  0.6207650000000000  1.7850400000000000 11.8686000000000007
  3.0825300000000002  1.7373499999999999 11.9215000000000000
  6.8944900000000002  4.0551800000000000 12.0121000000000002
  9.4463799999999996  4.0506099999999998 11.8510000000000009
  1.8345100000000001  3.9431300000000000 11.8648000000000007
  4.3205499999999999  3.9349400000000001 11.8668999999999993
  8.2854600000000005  6.0867500000000003 12.0770999999999997
  0.7235350000000000  6.1649599999999998 11.9314000000000000
  3.2331699999999999  6.0798399999999999 11.9832999999999998
  5.6063000000000001  6.2934000000000001 11.8649000000000004
  9.5698000000000008  8.3674099999999996 12.1057000000000006
  1.9413100000000001  8.3444500000000001 12.1356000000000002
  4.4931999999999999  8.4820499999999992 11.9855999999999998
  6.9192499999999999  8.3663200000000000 11.8999000000000006
  5.7039600000000004  0.3659090000000000 14.0305999999999997
  8.2390600000000003  0.3659090000000000 14.0305999999999997
  0.6337739999999999  0.3659090000000000 14.0305999999999997
  3.1688700000000001  0.3659090000000000 14.0305999999999997
  6.9715100000000003  2.5613700000000001 14.0305999999999997
  9.5066000000000006  2.5613700000000001 14.0305999999999997
  1.9013199999999999  2.5613700000000001 14.0305999999999997
  4.4364200000000000  2.5613700000000001 14.0305999999999997
  8.2390600000000003  4.7568200000000003 14.0305999999999997
  0.6337739999999999  4.7568200000000003 14.0305999999999997
  3.1688700000000001  4.7568200000000003 14.0305999999999997
  5.7039600000000004  4.7568200000000003 14.0305999999999997
  9.5066000000000006  6.9522800000000000 14.0305999999999997
  1.9013199999999999  6.9522800000000000 14.0305999999999997
  4.4364200000000000  6.9522800000000000 14.0305999999999997
  6.9715100000000003  6.9522800000000000 14.0305999999999997
  6.9715100000000003  1.0977300000000001 16.1005000000000003
  9.5066000000000006  1.0977300000000001 16.1005000000000003
  1.9013199999999999  1.0977300000000001 16.1005000000000003
  4.4364200000000000  1.0977300000000001 16.1005000000000003
  8.2390600000000003  3.2931800000000000 16.1005000000000003
  0.6337739999999999  3.2931800000000000 16.1005000000000003
  3.1688700000000001  3.2931800000000000 16.1005000000000003
  5.7039600000000004  3.2931800000000000 16.1005000000000003
  9.5066000000000006  5.4886400000000002 16.1005000000000003
  1.9013199999999999  5.4886400000000002 16.1005000000000003
  4.4364200000000000  5.4886400000000002 16.1005000000000003
  6.9715100000000003  5.4886400000000002 16.1005000000000003
  0.6337739999999999  7.6840999999999999 16.1005000000000003
  3.1688700000000001  7.6840999999999999 16.1005000000000003
  5.7039600000000004  7.6840999999999999 16.1005000000000003
  8.2390600000000003  7.6840999999999999 16.1005000000000003
  5.8320600000000002  1.6868000000000001 18.0698000000000008
  8.1771499999999993  1.7032900000000000 18.2098000000000013
  0.6546590000000000  1.6934300000000000 18.1651999999999987
  3.2517399999999999  1.7215600000000000 18.0753999999999984
  7.0130100000000004  3.8744700000000001 18.1774999999999984
  9.5076900000000002  3.8616999999999999 18.1571999999999996
  1.8668800000000001  4.0768700000000004 18.0522999999999989
  4.5061099999999996  4.0057799999999997 18.1450999999999993
  8.3514099999999996  6.0696700000000003 18.1631000000000000
  0.5826210000000001  6.2973499999999998 18.2044999999999995
  3.2323200000000001  6.2904400000000003 18.1810000000000009
  5.7681600000000000  6.1683599999999998 18.0887999999999991
  9.3913300000000000  8.3920399999999997 18.2052000000000014
  1.8784700000000001  8.4103800000000000 18.1030000000000015
  4.4782400000000004  8.4221100000000000 18.1651999999999987
  6.9314900000000002  8.3144200000000001 18.3299999999999983
  5.7152399999999997  0.4385520000000000 20.1944000000000017
  8.2561199999999992  0.2611130000000000 20.3686000000000007
  0.5575260000000000  0.2762610000000000 20.1663999999999994
  3.0962999999999998  0.3101910000000000 20.1771999999999991
  7.0667200000000001  2.4930900000000000 20.2729999999999997
  9.5193800000000000  2.6882000000000001 20.3426000000000009
  1.8959900000000001  2.5603899999999999 20.0132000000000012
  4.3754200000000001  2.4141599999999999 20.2264000000000017
  8.2266499999999994  4.7273399999999999 20.1946000000000012
  0.6572320000000000  4.7344799999999996 20.2326000000000015
  3.1934100000000001  4.6985799999999998 20.3101999999999983
  5.7613399999999997  4.6992700000000003 20.2550999999999988
  9.4943100000000005  6.8898500000000000 20.2966000000000015
  1.8898800000000000  6.8744899999999998 20.1632999999999996
  4.3749900000000004  6.9295799999999996 20.1337000000000010
  6.9817400000000003  6.8645300000000002 20.3345999999999982
  8.6127800000000008  2.2121599999999999  2.1131899999999999
  8.8515499999999996  2.5324700000000000  3.0165799999999998
  9.5522799999999997  2.1082800000000002  1.6648499999999999
  0.5128700000000000  0.6730120000000001  4.4942599999999997
  1.4376400000000000  0.5439780000000000  4.5586300000000000
  0.1004360000000000  0.1212270000000000  5.2404299999999999
  1.6766799999999999  5.0347900000000001  1.0170200000000000
  9.9702500000000001  1.2833600000000001 28.7008000000000010
  1.0363599999999999  5.2993199999999998  1.7623700000000000
  2.5446000000000000  5.6307999999999998  4.9946400000000004
  3.0648200000000001  6.4579599999999999  5.0224799999999998
  2.8112699999999999  5.2912800000000004  5.8766400000000001
  7.7678500000000001  6.8786899999999997  3.7101099999999998
  7.4416799999999999  7.8065899999999999  3.8287800000000001
  6.9697600000000000  6.5329499999999996  3.3639199999999998
  0.4538660000000000  6.6028099999999998  3.3267600000000002
  4.4649500000000000  0.1424520000000000 27.0780999999999992
  9.6553599999999999  6.4907800000000000  3.4340799999999998
  0.2803240000000000  4.8419100000000004  6.4928900000000001
  2.1433399999999998  1.2725100000000000 25.5491999999999990
  1.2755000000000001  4.8140700000000001  6.4923999999999999
  4.0451499999999996  0.0128909000000000 28.0152999999999999
  5.3836399999999998  5.5747700000000000 27.7699999999999996
  3.0882499999999999  0.2329180000000000 27.8453000000000017
  2.7592200000000000  1.2768900000000001  7.4377399999999998
  3.3396300000000001  0.5724040000000000  7.0899900000000002
  4.0663299999999998  2.9142299999999999  3.3022700000000000
  5.0393400000000002  2.8398900000000000  3.4036599999999999
  5.5322300000000002  3.0640299999999998  2.6467999999999998
  7.8530100000000003  6.1064499999999997  0.7623450000000001
  4.3902700000000001  5.6284599999999996 27.8281999999999989
  4.2489200000000000  6.5691699999999997 28.1088999999999984
  0.4769610000000000  7.9404100000000000 24.0728000000000009
  8.8512100000000000  7.8082799999999999 26.9482999999999997
  8.5229099999999995  6.8631200000000003 27.0664000000000016
  9.2856799999999993  7.8030499999999998 26.0213999999999999
  2.0266099999999998  1.2290000000000001 26.5084000000000017
  0.8205590000000000  6.4849899999999998  4.2254500000000004
  2.1052399999999998  2.1015899999999998 26.8957000000000015
  0.1715610000000000  7.7739799999999999  6.4917299999999996
 10.1974999999999998  6.8275199999999998  6.7577999999999996
  0.5791500000000001  8.0274599999999996  7.3161800000000001
  9.3559099999999997  2.0153099999999999 28.5816000000000017
  0.0255499000000000  4.4620600000000001  7.3731799999999996
  9.6805400000000006  2.8423200000000000 28.9348999999999990
  2.1303100000000001  3.2659400000000001 23.2402000000000015
  2.1342200000000000  2.4368799999999999 22.7206000000000010
  8.3758199999999992  3.5795100000000000 26.6098999999999997
  8.9044500000000006  3.7801600000000000 25.8074000000000012
  8.6302800000000008  2.7004500000000000 26.9060999999999986
  7.4029199999999999  5.8719299999999999  6.3750499999999999
  8.0733400000000000  6.2386799999999996  6.8862399999999999
  7.4488300000000001  6.4437499999999996  5.5338799999999999
  3.1966000000000001  4.1315299999999997  7.1152800000000003
  4.2372100000000001  4.1776200000000001  6.9687700000000001
  3.1489400000000001  4.7385200000000003  7.9019199999999996
  1.9946699999999999  3.9897200000000002 22.5918999999999990
  7.5618699999999999  5.3463200000000004  0.3171280000000000
  8.3180800000000001  4.8880999999999997 -0.0570757000000000
  4.7385900000000003  6.5459899999999998  2.7126399999999999
  5.0722199999999997  5.8564699999999998  3.3024200000000001
  4.2379100000000003  5.3349700000000002  3.3804599999999998
  3.3055200000000000  2.0522999999999998  7.4457800000000001
  5.6984199999999996  3.8461200000000000  6.1495800000000003
  5.4650400000000001  3.6008000000000000  5.2636500000000002
  6.4246200000000000  4.5242699999999996  6.1891900000000000
  9.6983899999999998  8.0579300000000007 24.4211999999999989
  9.1837199999999992  7.3319299999999998 23.9056999999999995
  1.9220800000000000  0.2980240000000000 23.4269999999999996
  1.4549399999999999 -0.0046200100000000 22.6104999999999983
  6.3736100000000002  3.4529000000000001 25.8629999999999995
  5.5660900000000000  3.0457700000000001 25.4850999999999992
  0.2311510000000000  2.4221800000000000  4.6581999999999999
  5.2801200000000001  3.7450199999999998 24.8195000000000014
  0.3063570000000000  3.3240500000000002  4.2469599999999996
  2.8648899999999999  8.7545699999999993 23.3875999999999991
  0.2858850000000000  3.9838900000000002  5.0247900000000003
  7.1172500000000003  8.7467699999999997 28.5077999999999996
  7.5189599999999999  0.8510210000000000 28.4897999999999989
  7.5413600000000001  8.3812499999999996 27.7449000000000012
  8.4304799999999993  6.1713600000000000 23.3186000000000000
  8.9537499999999994  5.2866799999999996 23.3311999999999991
  7.4286099999999999  5.6753600000000004 28.7850000000000001
  7.3012800000000002  5.5579700000000001 27.7839999999999989
  7.8669300000000000  0.1782330000000000  1.6085300000000000
  7.1998899999999999  8.3745799999999999  1.1245099999999999
  8.1000399999999999  6.3571099999999996 22.4268000000000001
  7.3375399999999997  8.5417000000000005  0.1640690000000000
  2.7683700000000000  3.6107800000000001 28.5055000000000014
  3.4639799999999998  4.2149700000000001 28.2270000000000003
  3.1729300000000000  3.1483699999999999 29.2603000000000009
  6.8688799999999999  2.1560800000000002  6.9804300000000001
  7.4478000000000000  1.3876299999999999  7.0509599999999999
  5.5573600000000001  8.5345300000000002  1.7739400000000001
  7.8398599999999998  1.5406899999999999  7.9342899999999998
  4.7178399999999998  8.7820199999999993  2.2484700000000002
  4.4320000000000004  0.7778040000000001  1.6773800000000001
  7.5909599999999999  1.2727299999999999 23.8247000000000000
  4.8667400000000001  7.1268399999999996  6.8807499999999999
  4.6951499999999999  7.4659300000000002  7.7592699999999999
  5.7597399999999999  6.7576499999999999  6.9942700000000002
  9.7822200000000006  4.6018800000000004 29.3079999999999998
  0.4585510000000000  4.6089900000000004 29.8048999999999999
  0.9719950000000001  0.4052830000000000  1.0720499999999999
  0.7837540000000000  1.1356599999999999  1.7211399999999999
  1.8220400000000001  2.2636900000000000  2.3249700000000000
  0.6470180000000000  0.7011030000000000  2.5693100000000002
  2.3826299999999998  3.0147300000000001  2.6933500000000001
 10.0650999999999993  5.0701599999999996 28.4344000000000001
  1.8337100000000000  3.3976500000000001  3.4340799999999998
  6.4107099999999999  0.4372950000000000  4.5768500000000003
  5.8689099999999996  1.1476800000000000  4.1212999999999997
  6.9028999999999998  0.8425510000000000  5.2837399999999999
  5.7162199999999999  0.4898970000000000 25.5676999999999985
  7.6711200000000002  4.7254600000000000 27.4830000000000005
  4.6639999999999997  7.1228199999999999 23.4516999999999989
  4.3393400000000000  7.9128800000000004 23.8961000000000006
  3.4652300000000000  7.3671300000000004  0.2955430000000000
  5.1281900000000000  8.2989099999999993 24.3597999999999999
  2.6428300000000000  7.0444000000000004 29.9849999999999994
  6.6468600000000002  0.2494940000000000 25.9493000000000009
  2.4284800000000000  6.3304099999999996  0.5013120000000000
  4.1389899999999997  1.5963400000000001 30.0813999999999986
  4.9620400000000000  2.0204499999999999 -0.0173010000000000
  4.2739399999999996  1.1255900000000001 29.2429999999999986
  2.0154200000000002  4.1997900000000001  1.3876999999999999
  4.5093199999999998  4.9138299999999999 22.5856999999999992
  4.9617500000000003  5.1022800000000004 23.4638999999999989
  0.2462280000000000  3.4096000000000002 23.9075999999999986
  5.8756199999999996  5.0630199999999999 23.2155999999999985
  9.5625199999999992  3.8046899999999999 24.2136999999999993
  8.9612900000000000  3.0633900000000001 23.9183999999999983
  8.5028100000000002  1.5061899999999999 23.7102000000000004
  8.9803200000000007  0.6434020000000000 23.9481999999999999
  5.7394699999999998  1.4502500000000000 25.5097999999999985
  6.4519399999999996  3.0024600000000001  0.8973790000000000
  6.3162099999999999  3.8513400000000000  0.4997570000000000
  7.3302500000000004  2.9629900000000000  1.3116600000000000
  1.2524100000000000  5.7725299999999997 27.4976999999999983
  2.0715900000000000  6.1681400000000002 27.8383000000000003
  1.3806700000000001  5.5460900000000004 26.6199000000000012
  2.2931900000000001  5.9371900000000002 24.8952999999999989
  3.0556800000000002  6.4964899999999997 24.8408000000000015
  2.6058200000000000  5.0871300000000002 24.5198999999999998
  3.3847100000000001  8.3200699999999994  4.9628300000000003
  4.0563099999999999  8.1449200000000008  5.5804600000000004
  3.7622800000000001  8.7739499999999992  4.1973300000000000
  0.6461570000000000  8.4694199999999995 29.3333000000000013
  1.3619500000000000  7.8291500000000003 29.4802999999999997
  0.3122820000000000  8.2658500000000004 28.4617000000000004
