Cu O  H  O  H  O  H  O  H  O  H  O  H  O  H  O  H  O  H  O  H  O  H  O  H  O  H  O  H  O  H  O  H  O  H  O  H  O  H  O  H  O  H  O  H  O  H  O  H  O  H  O  H  O  H  O  H  O  H  O  H  O  H  O  H  O  H  O  H  O  H  O  H  O  H  O  H  O  H  O  H  O  H  O  H  O  H  O  H  O  H  O  H  O  H  O  H  O  H  O  H 
 1.0000000000000000
    10.1403771778044529    0.0000000000000000    0.0000000000000000
     0.0000000000000000    8.7818242399346058    0.0000000000000000
     0.0000000000000000    0.0000000000000000   30.1311271579000000
 Cu  O   H   O   H   O   H   O   H   O   H   O   H   O   H   O   H   O   H   O   H   O   H   O   H   O   H   O   H   O   H   O   H   O   H   O   H   O   H   O   H   O   H   O   H   O   H   O   H   O   H   O   H   O   H   O   H   O   H   O   H   O   H   O   H   O   H   O   H   O   H   O   H   O   H   O   H   O   H   O   H   O   H   O   H   O   H   O   H   O   H   O   H   O   H   O   H   O   H   O   H  
  96   1   2   1   2   1   2   1   2   1   2   1   2   1   2   1   2   1   2   1   2   1   2   1   2   1   2   1   2   1   2   1   1   1   2   1   2   1   3   1   2   1   2   1   2   1   1   1   2   1   2   1   2   1   2   1   2   1   1   1   2   1   3   1   2   1   2   1   2   1   2   1   2   1   2   1   2   1   2   1   2   1   2   1   4   1   2   1   1   1   2   1   2   1   2   1   2   1   2   1   2
Cartesian
  6.9815199999999997  1.0531999999999999  9.9342500000000005
  9.3540399999999995  0.9582830000000000  9.7887599999999999
  1.9146900000000000  0.9664469999999999  9.9060199999999998
  4.2571199999999996  0.9819300000000000  9.6729900000000004
  8.1088799999999992  3.2696600000000000  9.9473699999999994
  0.3765300000000000  3.0325199999999999  9.8268199999999997
  3.1796500000000001  3.2540300000000002  9.7824100000000005
  5.5580800000000004  3.3276699999999999  9.9771300000000007
  9.3593399999999995  5.4024000000000001  9.8240300000000005
  1.8448199999999999  5.3771800000000001 10.0325000000000006
  4.2777799999999999  5.4333700000000000  9.7732799999999997
  6.7273899999999998  5.5202600000000004  9.9083799999999993
  0.6413360000000000  7.5481400000000001  9.8837700000000002
  3.1652100000000001  7.7161000000000000  9.7250300000000003
  5.6972500000000004  7.7438900000000004  9.7755799999999997
  8.1830499999999997  7.6127300000000000 10.0937999999999999
  5.6893200000000004  1.7639100000000001 11.9811999999999994
  8.0967699999999994  1.8517699999999999 11.9549000000000003
  0.5566580000000000  1.7711800000000000 11.9824000000000002
  3.1363900000000000  1.7989299999999999 11.9542999999999999
  7.0422399999999996  3.9444800000000000 12.0069999999999997
  9.4708299999999994  3.9933900000000002 11.9123000000000001
  1.8172100000000000  3.8539900000000000 11.7848000000000006
  4.4001500000000000  4.0828899999999999 11.9725000000000001
  8.2365399999999998  6.1958399999999996 11.9062000000000001
  0.5129770000000000  6.1939500000000001 11.9456000000000007
  3.1717499999999998  6.2182899999999997 12.0335999999999999
  5.6715700000000000  6.2517899999999997 11.8278999999999996
  9.5325799999999994  8.5580900000000000 12.0251999999999999
  1.8935999999999999  8.4158100000000005 12.0313999999999997
  4.3414700000000002  8.3376999999999999 11.7189999999999994
  6.8541999999999996  8.2890099999999993 11.9549000000000003
  5.7039600000000004  0.3659090000000000 14.0305999999999997
  8.2390600000000003  0.3659090000000000 14.0305999999999997
  0.6337739999999999  0.3659090000000000 14.0305999999999997
  3.1688700000000001  0.3659090000000000 14.0305999999999997
  6.9715100000000003  2.5613700000000001 14.0305999999999997
  9.5066000000000006  2.5613700000000001 14.0305999999999997
  1.9013199999999999  2.5613700000000001 14.0305999999999997
  4.4364200000000000  2.5613700000000001 14.0305999999999997
  8.2390600000000003  4.7568200000000003 14.0305999999999997
  0.6337739999999999  4.7568200000000003 14.0305999999999997
  3.1688700000000001  4.7568200000000003 14.0305999999999997
  5.7039600000000004  4.7568200000000003 14.0305999999999997
  9.5066000000000006  6.9522800000000000 14.0305999999999997
  1.9013199999999999  6.9522800000000000 14.0305999999999997
  4.4364200000000000  6.9522800000000000 14.0305999999999997
  6.9715100000000003  6.9522800000000000 14.0305999999999997
  6.9715100000000003  1.0977300000000001 16.1005000000000003
  9.5066000000000006  1.0977300000000001 16.1005000000000003
  1.9013199999999999  1.0977300000000001 16.1005000000000003
  4.4364200000000000  1.0977300000000001 16.1005000000000003
  8.2390600000000003  3.2931800000000000 16.1005000000000003
  0.6337739999999999  3.2931800000000000 16.1005000000000003
  3.1688700000000001  3.2931800000000000 16.1005000000000003
  5.7039600000000004  3.2931800000000000 16.1005000000000003
  9.5066000000000006  5.4886400000000002 16.1005000000000003
  1.9013199999999999  5.4886400000000002 16.1005000000000003
  4.4364200000000000  5.4886400000000002 16.1005000000000003
  6.9715100000000003  5.4886400000000002 16.1005000000000003
  0.6337739999999999  7.6840999999999999 16.1005000000000003
  3.1688700000000001  7.6840999999999999 16.1005000000000003
  5.7039600000000004  7.6840999999999999 16.1005000000000003
  8.2390600000000003  7.6840999999999999 16.1005000000000003
  5.7065999999999999  1.7919600000000000 18.1662999999999997
  8.2411100000000008  1.8549000000000000 18.1245000000000012
  0.5720870000000000  1.8420200000000000 18.1543999999999990
  2.9962100000000000  1.9671400000000001 18.2580999999999989
  6.9378700000000002  4.0816100000000004 18.1535000000000011
  9.4300899999999999  4.0638899999999998 18.1743999999999986
  1.7619899999999999  4.0309200000000001 18.2170999999999985
  4.3890399999999996  4.1006900000000002 18.1819999999999986
  8.2133099999999999  6.3117500000000000 18.1682999999999986
  0.5100770000000000  6.2036899999999999 18.1439999999999984
  3.1564199999999998  6.1425999999999998 18.1934000000000005
  5.7220000000000004  6.1970799999999997 18.1868000000000016
  9.4863000000000000  8.5626499999999997 18.2468000000000004
  1.8445499999999999  8.5378699999999998 18.1066000000000003
  4.2780199999999997  8.5196699999999996 18.0916999999999994
  6.8359600000000000  8.3923699999999997 18.3348000000000013
  5.5839900000000000  0.5147220000000000 20.3145999999999987
  8.1657100000000007  0.2938990000000000 20.2247999999999983
  0.6462750000000000  0.4685670000000000 20.1924999999999990
  3.1159500000000002  0.3988930000000000 19.9810000000000016
  6.8715799999999998  2.6447500000000002 20.1476000000000006
  9.4432799999999997  2.4956700000000001 20.2265000000000015
  1.8890499999999999  2.6251600000000002 20.2758000000000003
  4.4570699999999999  2.5270500000000000 20.3375999999999983
  8.2628000000000004  4.7164599999999997 20.0750999999999991
  0.5058210000000000  4.6867000000000001 20.1293000000000006
  3.1129899999999999  4.7473000000000001 20.3064999999999998
  5.6456499999999998  4.7432699999999999 20.3158999999999992
  9.6138700000000004  6.9893200000000002 20.0930999999999997
  1.8234300000000001  6.9493499999999999 20.1835999999999984
  4.3504500000000004  7.1012100000000000 20.2930999999999990
  6.9893999999999998  6.9142000000000001 20.1834999999999987
  2.6449600000000002  1.4439900000000001 23.5404000000000018
  1.6521699999999999  1.4405200000000000 23.5268000000000015
  2.7575300000000000  1.7368300000000001 22.6792000000000016
  3.7558500000000001  0.9269970000000000 28.4309000000000012
  3.4609299999999998  1.7557600000000000 28.8463999999999992
  4.2001700000000000  1.3428899999999999 27.6614000000000004
  8.2951300000000003  7.5877800000000004  4.4351399999999996
  9.7484699999999993  6.4462599999999997 24.0911000000000008
  7.5597700000000003  7.2810400000000000  5.0004600000000003
  7.3142100000000001  6.8844900000000004 26.1253999999999991
  7.1825900000000003  6.2020799999999996 26.8280999999999992
  8.2623200000000008  6.8105700000000002 25.7866000000000000
  5.5109300000000001  3.6359300000000001  0.5515380000000000
  6.4452499999999997  3.3258500000000000  0.8859210000000000
  5.3624499999999999  4.2358200000000004  1.3318099999999999
  4.8801899999999998  7.1176300000000001 29.0791000000000004
  4.2081900000000001  1.5216099999999999  5.3445600000000004
  4.0651000000000002  6.8086900000000004 29.4412999999999982
  0.5534260000000000  7.3562399999999997  5.9302299999999999
  6.5522900000000002  8.1737800000000007  6.7564599999999997
 10.1690000000000005  8.0458700000000007  6.3772399999999996
  3.6349100000000001  1.3121900000000000  4.4980700000000002
 10.1071000000000009  5.5758000000000001  3.2794900000000000
  3.8827900000000000  0.4083020000000000  4.1935399999999996
  2.9386899999999998  4.1698599999999999  5.2035400000000003
  3.3934199999999999  4.9911300000000001  5.6308800000000003
  0.4164800000000000  0.7130850000000000 27.9984000000000002
  0.0643890000000000  1.6180200000000000 27.7809999999999988
  0.0861463000000000  2.1302200000000000 28.6361999999999988
  7.8454499999999996  8.3095199999999991 26.8276000000000003
  9.3099799999999995  5.5381400000000003  2.6516600000000001
  8.7149699999999992  6.2041899999999996  3.0642999999999998
  0.9829280000000000  8.1076800000000002  0.7952979999999999
  8.0512400000000000  4.7337600000000002 27.8966999999999992
  7.1071900000000001  4.4384399999999999 28.0086000000000013
  8.0561399999999992  5.4458599999999997 28.5457999999999998
  6.5808600000000004  7.2109600000000000  6.5662500000000001
  4.8331900000000001  8.0862999999999996 28.9099000000000004
  7.1168800000000001  6.8259800000000004  7.2758000000000003
  3.8250199999999999  7.7023599999999997  3.3109899999999999
  4.6378199999999996  7.2397799999999997  3.3537699999999999
  3.1825000000000001  6.9948600000000001  3.2979500000000002
  9.1579899999999999  7.1452600000000004 24.1930000000000014
  1.4568000000000001  7.5290699999999999  6.1558299999999999
  9.7433499999999995  7.9711800000000004 24.1458000000000013
  9.4938900000000004  4.8427499999999997  6.7518300000000000
  0.0206356000000000  4.1942899999999996  6.9650299999999996
  6.8668500000000003  4.2939900000000000  6.7874699999999999
  7.7908099999999996  4.3455300000000001  7.1226399999999996
  6.3131399999999998  4.4516400000000003  7.5284700000000004
  7.6244500000000004  1.6642999999999999  3.8886599999999998
  8.1305099999999992  1.5184700000000000  4.7279299999999997
  8.2464499999999994  2.0099499999999999  3.1889500000000002
 10.0729000000000006  1.0207599999999999 23.4279000000000011
  9.4095700000000004  1.7327900000000001 23.5499000000000009
  9.9421800000000005  0.8443659999999999 22.4845000000000006
  9.9526100000000000  5.7201700000000004  6.5659999999999998
  7.7676200000000000  0.4669940000000000 27.2765999999999984
  8.5240299999999998  1.0077400000000001 27.1297999999999995
  0.8841960000000000  2.0751100000000000  0.6668920000000000
  0.2490620000000000  2.7312799999999999  0.2049110000000000
  0.7347210000000000  3.5797099999999999  0.2654540000000000
  3.7262599999999999  3.6223999999999998  4.8850600000000002
  9.2861499999999992  1.2358000000000000  6.2072900000000004
  8.9110300000000002  1.2068600000000000  7.0876900000000003
 10.2219999999999995  1.5995800000000000  6.3298399999999999
  0.3202430000000000  7.3959400000000004  0.6997250000000000
  0.0593945000000000  7.1219500000000000  1.5926700000000000
  4.6616000000000000  1.1941400000000000  1.2481100000000001
  4.4574600000000002  1.2468399999999999  2.2455099999999999
  6.6783200000000003  3.1619400000000000 24.0750999999999991
  5.7266199999999996  2.9273899999999999 24.1627000000000010
  1.6532800000000001  0.8224770000000000  2.1551200000000001
  5.5529900000000003  2.1487300000000000 23.5930999999999997
  1.9460000000000000  1.0564300000000000  1.1737100000000000
  4.8994200000000001  2.1021299999999998  1.0550100000000000
  2.8393500000000000  1.3342600000000000  1.2382100000000000
  6.5118799999999997  7.0632799999999998 23.3216000000000001
  6.3634399999999998  6.5266500000000001 22.4461000000000013
  7.4886699999999999  7.2714100000000004 23.3139000000000003
  0.1440230000000000  4.6559900000000001 23.8987000000000016
  0.9979050000000000  4.6613600000000002 23.4460000000000015
  4.8566900000000004  5.3802700000000003 26.4282000000000004
  5.2450200000000002  5.1726700000000001 27.2789999999999999
  1.3239700000000001  6.0723399999999996  0.3117880000000000
  1.9174300000000000  5.2809400000000002  0.2993660000000000
  0.3132950000000000  4.1542399999999997 24.7045999999999992
  2.1707299999999998  5.0283300000000004 29.4989999999999988
  8.2892399999999995  3.1290000000000000 23.0458999999999996
  8.1800400000000000  2.8040300000000000 22.1769999999999996
  8.9388400000000008  3.8768600000000002 23.1643000000000008
  2.2880799999999999 -0.1189410000000000 28.4232000000000014
  1.3850899999999999  8.2721699999999991 28.4346999999999994
  6.3091900000000001  8.8739299999999997  1.7788900000000001
  1.4071300000000000  7.2757699999999996 28.1043999999999983
  6.7923099999999996  8.0252900000000000  1.8186300000000000
  6.9426100000000002  7.7387400000000000  0.8906590000000000
  2.5609199999999999  8.2288899999999998 24.4238000000000000
  1.8876299999999999  5.5939899999999998  3.1321099999999999
  1.9279400000000000  4.9976399999999996  2.3525499999999999
  2.1391700000000000  4.9827000000000004  3.8701800000000000
  5.1655699999999998  1.6798999999999999 26.4736000000000011
  5.9421799999999996  1.1632800000000001 26.4997000000000007
  2.2220300000000002  2.6168399999999998 25.4888000000000012
  1.5745800000000001  3.0266299999999999 26.0919999999999987
  8.5554400000000008  3.8838599999999999  1.9912000000000001
  0.9231900000000000  2.4454199999999999 26.5259999999999998
  8.1089500000000001  3.2003699999999999  1.4945299999999999
  5.2647100000000000  2.1544900000000000 25.6246000000000009
  8.8841099999999997  2.7278600000000002  1.1305099999999999
  7.9734200000000000  7.2583599999999997 29.6571999999999996
  7.9114899999999997  7.9175399999999998 28.9462000000000010
  8.8492599999999992  7.4856699999999998 29.9439999999999991
  3.3035299999999999  3.5575600000000001 28.3612000000000002
  5.0693299999999999  6.0127699999999997 27.7605000000000004
  6.2165400000000002  5.3505300000000000  3.1902900000000001
  5.6353200000000001  5.7923299999999998  2.5230199999999998
  4.8765400000000003  6.6068499999999997  6.3615899999999996
  6.0812600000000003  6.6168899999999997  2.1853199999999999
  3.9232600000000000  6.5995499999999998  6.3742000000000001
  2.9619100000000000  3.1300800000000000 27.5573000000000015
  3.7065899999999998  6.8048700000000002  7.2618799999999997
  5.1384299999999996  0.5699210000000000 22.9677000000000007
  5.6255800000000002  8.4722299999999997 23.1765000000000008
  4.2007399999999997  0.5778630000000000 23.2234000000000016
  7.8477600000000001  8.2128300000000003  3.8370899999999999
  5.5720099999999997  5.9825999999999997 24.5097999999999985
  4.8206100000000003  5.4418199999999999 24.6602999999999994
  1.6626799999999999  0.7220460000000000  4.1090299999999997
  5.0887099999999998  4.5087000000000002 24.4121999999999986
  0.9247690000000000  0.4770560000000000  3.5623600000000000
  0.3317000000000000  8.6994199999999999  4.0506799999999998
  1.9393400000000001  7.5834900000000003 24.7537999999999982
  2.0597699999999999  6.8028199999999996 24.1772999999999989
  4.0782499999999997  4.0750299999999999 28.0657999999999994
  1.4521500000000001  2.2967399999999998  6.7298200000000001
  1.8643000000000001  2.0446200000000001  7.6025799999999997
  2.1685300000000001  2.8629500000000001  6.3175800000000004
  5.5929900000000004  1.5371999999999999  6.4618900000000004
  6.1900800000000000  2.3317199999999998  6.5533799999999998
  5.3185000000000002  1.4936300000000000  7.3842299999999996
  2.6742699999999999  5.5383100000000001 23.2210000000000001
  3.0917100000000000  6.0614100000000004 22.4858000000000011
  3.4644200000000001  5.4797099999999999 23.7942999999999998
  1.1889099999999999  6.0366099999999996 27.0323999999999991
  1.4370400000000001  6.6605600000000003 26.2821999999999996
  1.8227400000000000  5.2955100000000002 26.8358999999999988
  5.9509200000000000  3.8425300000000000  4.3543500000000002
  6.4265400000000001  2.9751500000000002  4.1893599999999998
  6.2724900000000003  4.0778499999999998  5.2247500000000002
