Cu O  H  O  H  O  H  O  H  O  H  O  H  O  H  O  H  O  H  O  H  O  H  O  H  O  H  O  H  O  H  O  H  O  H  O  H  O  H  O  H  O  H  O  H  O  H  O  H  O  H  O  H  O  H  O  H  O  H  O  H  O  H  O  H  O  H  O  H  O  H  O  H  O  H  O  H  O  H  O  H  O  H  O  H  O  H  O  H  O  H  O  H  O  H  O  H  O  H  O  H 
 1.0000000000000000
    10.1403771778044529    0.0000000000000000    0.0000000000000000
     0.0000000000000000    8.7818242399346058    0.0000000000000000
     0.0000000000000000    0.0000000000000000   30.1311271579000000
 Cu  O   H   O   H   O   H   O   H   O   H   O   H   O   H   O   H   O   H   O   H   O   H   O   H   O   H   O   H   O   H   O   H   O   H   O   H   O   H   O   H   O   H   O   H   O   H   O   H   O   H   O   H   O   H   O   H   O   H   O   H   O   H   O   H   O   H   O   H   O   H   O   H   O   H   O   H   O   H   O   H   O   H   O   H   O   H   O   H   O   H   O   H   O   H   O   H   O   H   O   H  
  96   1   2   1   2   1   2   1   2   1   2   1   2   1   2   1   2   1   2   1   2   1   2   1   2   1   2   1   2   1   2   1   1   1   2   1   2   1   3   1   2   1   2   1   2   1   1   1   2   1   2   1   2   1   2   1   2   1   1   1   2   1   3   1   2   1   2   1   2   1   2   1   2   1   2   1   2   1   2   1   2   1   2   1   4   1   2   1   1   1   2   1   2   1   2   1   2   1   2   1   2
Cartesian
  6.8671499999999996  1.2123500000000000  9.9712899999999998
  9.3525200000000002  0.9967410000000000  9.8719900000000003
  1.8818900000000001  0.9915020000000000  9.8626400000000007
  4.4316300000000002  1.2263299999999999  9.9517100000000003
  8.1172900000000006  3.1923200000000000  9.7526499999999992
  0.5877130000000000  3.2247599999999998  9.9769000000000005
  3.0331100000000002  3.1610299999999998 10.0350000000000001
  5.6889500000000002  3.3624299999999998  9.8627000000000002
  9.5911299999999997  5.4340200000000003  9.8670899999999993
  1.9227200000000000  5.4528999999999996  9.9074700000000000
  4.3936900000000003  5.4229599999999998  9.8023900000000008
  6.8941100000000004  5.5033500000000002  9.8475999999999999
  0.5268160000000000  7.6378199999999996  9.8300500000000000
  3.1236199999999998  7.6584599999999998 10.0561000000000007
  5.7064300000000001  7.6809599999999998  9.9771999999999998
  8.1935099999999998  7.6716199999999999  9.8309999999999995
  5.5713200000000001  1.8793400000000000 11.9763999999999999
  8.3826800000000006  1.9054700000000000 11.8957999999999995
  0.5900320000000000  1.7201200000000001 11.8796999999999997
  3.1267100000000001  1.7626100000000000 11.9997000000000007
  6.8441799999999997  3.9066100000000001 11.9210999999999991
  9.4726099999999995  4.0608300000000002 11.9748999999999999
  1.8984099999999999  3.9418099999999998 12.0589999999999993
  4.2970400000000000  3.9459499999999998 11.9612999999999996
  8.1789000000000005  6.2079199999999997 12.0334000000000003
  0.5489740000000000  6.1311999999999998 11.9397000000000002
  3.1396000000000002  6.0031200000000000 11.9300999999999995
  5.6237300000000001  6.1360999999999999 11.8379999999999992
  9.4801000000000002  8.3892799999999994 11.8306000000000004
  1.9894900000000000  8.3199400000000008 11.9917999999999996
  4.4208200000000000  8.2609999999999992 12.0229999999999997
  6.9876899999999997  8.3870000000000005 11.8697999999999997
  5.7039600000000004  0.3659090000000000 14.0305999999999997
  8.2390600000000003  0.3659090000000000 14.0305999999999997
  0.6337739999999999  0.3659090000000000 14.0305999999999997
  3.1688700000000001  0.3659090000000000 14.0305999999999997
  6.9715100000000003  2.5613700000000001 14.0305999999999997
  9.5066000000000006  2.5613700000000001 14.0305999999999997
  1.9013199999999999  2.5613700000000001 14.0305999999999997
  4.4364200000000000  2.5613700000000001 14.0305999999999997
  8.2390600000000003  4.7568200000000003 14.0305999999999997
  0.6337739999999999  4.7568200000000003 14.0305999999999997
  3.1688700000000001  4.7568200000000003 14.0305999999999997
  5.7039600000000004  4.7568200000000003 14.0305999999999997
  9.5066000000000006  6.9522800000000000 14.0305999999999997
  1.9013199999999999  6.9522800000000000 14.0305999999999997
  4.4364200000000000  6.9522800000000000 14.0305999999999997
  6.9715100000000003  6.9522800000000000 14.0305999999999997
  6.9715100000000003  1.0977300000000001 16.1005000000000003
  9.5066000000000006  1.0977300000000001 16.1005000000000003
  1.9013199999999999  1.0977300000000001 16.1005000000000003
  4.4364200000000000  1.0977300000000001 16.1005000000000003
  8.2390600000000003  3.2931800000000000 16.1005000000000003
  0.6337739999999999  3.2931800000000000 16.1005000000000003
  3.1688700000000001  3.2931800000000000 16.1005000000000003
  5.7039600000000004  3.2931800000000000 16.1005000000000003
  9.5066000000000006  5.4886400000000002 16.1005000000000003
  1.9013199999999999  5.4886400000000002 16.1005000000000003
  4.4364200000000000  5.4886400000000002 16.1005000000000003
  6.9715100000000003  5.4886400000000002 16.1005000000000003
  0.6337739999999999  7.6840999999999999 16.1005000000000003
  3.1688700000000001  7.6840999999999999 16.1005000000000003
  5.7039600000000004  7.6840999999999999 16.1005000000000003
  8.2390600000000003  7.6840999999999999 16.1005000000000003
  5.7571000000000003  1.8410700000000000 18.0943000000000005
  8.2088599999999996  1.7732600000000001 18.2454000000000001
  0.5797880000000000  1.8109999999999999 18.2021000000000015
  3.2468699999999999  1.8940200000000000 18.1329999999999991
  7.0679600000000002  4.0039600000000002 18.1951999999999998
  9.5563599999999997  3.9257300000000002 18.2382999999999988
  1.9952099999999999  4.0673000000000004 18.1715000000000018
  4.4734200000000000  4.0181199999999997 18.0101000000000013
  8.1915999999999993  6.2368399999999999 18.1911999999999985
  0.4841490000000000  6.1531500000000001 18.0972000000000008
  3.1532700000000000  6.2027400000000004 18.1590999999999987
  5.6447700000000003  6.1528799999999997 18.0766999999999989
  9.4872399999999999  8.3855900000000005 18.2194000000000003
  1.8068500000000001  8.3190100000000005 18.1506000000000007
  4.3944700000000001  8.3159799999999997 18.1514999999999986
  7.0338900000000004  8.3120999999999992 18.2194000000000003
  5.6550900000000004  0.3594490000000000 20.0977999999999994
  8.1376600000000003  0.4567120000000000 20.3183000000000007
  0.4888940000000000  0.5021040000000000 20.2223000000000006
  3.0365799999999998  0.2473400000000000 20.1280999999999999
  7.0769099999999998  2.6632799999999999 20.5127999999999986
  9.5173600000000000  2.5679200000000000 20.3103000000000016
  1.8895100000000000  2.4800100000000000 20.1926999999999985
  4.4030600000000000  2.5749399999999998 20.2616000000000014
  8.2323900000000005  4.7202999999999999 20.1844999999999999
  0.6284729999999999  4.6649200000000004 20.2101000000000006
  3.2706200000000001  4.6104799999999999 20.2271000000000001
  5.7520400000000000  4.6605800000000004 20.1463000000000001
  9.2551199999999998  6.8981899999999996 20.2835000000000001
  1.6772700000000000  6.9589100000000004 20.1690000000000005
  4.2460399999999998  6.9351200000000004 20.0745000000000005
  6.8780900000000003  6.9225099999999999 20.2006000000000014
  9.9121400000000008  4.5108199999999998 23.3663999999999987
  8.9292999999999996  4.5080000000000000 23.3465999999999987
  0.1388350000000000  4.8147700000000002 22.5565999999999995
  2.5646300000000002  4.6911100000000001  6.3358100000000004
  2.2913500000000000  4.8829500000000001  7.2312799999999999
  1.9136400000000000  4.0419299999999998  6.0674799999999998
  9.6804000000000006  6.2148700000000003  5.6530600000000000
  8.1345700000000001  1.7268200000000000 24.7121999999999993
  0.2700930000000000  6.6337599999999997  6.1434199999999999
  3.9683700000000002  1.8665799999999999  2.1707399999999999
  4.1334600000000004  0.8606250000000000  2.2703099999999998
  4.4884100000000000  2.2518099999999999  1.4511499999999999
  6.8299300000000001  7.8910299999999998 23.4445000000000014
  6.3884600000000002  7.7331599999999998 22.5766999999999989
  7.5142800000000003  8.5072299999999998 23.2393999999999998
  5.3159299999999998  0.0906001000000000 25.4812000000000012
  2.5952299999999999  8.6562599999999996 26.6206999999999994
  4.9375499999999999  8.2033900000000006 24.8991000000000007
  7.3201400000000003  4.7419099999999998  3.1355800000000000
  7.2771200000000000  4.2953799999999998  7.2727599999999999
  6.6997200000000001  5.5154899999999998  3.1314099999999998
  3.0151400000000002  0.7452420000000000 26.7174000000000014
  9.0307300000000001  2.4788999999999999 27.8064000000000000
  2.6353599999999999  1.1225700000000001 27.5502000000000002
  7.4021499999999998  8.4696599999999993 30.0177000000000014
  7.9047799999999997  8.5282300000000006  0.7974050000000000
  3.4056500000000001  3.2189600000000000 22.2745999999999995
  3.0389100000000000  3.3753500000000001 23.1654000000000018
  2.5274700000000001  2.6354299999999999 23.4701999999999984
  2.4065500000000002  4.5967399999999996  3.0802900000000002
  9.2390500000000007  1.9985700000000000 26.9984000000000002
  8.5246200000000005  2.2015799999999999 26.3979999999999997
  2.4355199999999999  4.7017100000000003 -0.0535839000000000
  9.0605899999999995  0.6326680000000000 23.4754000000000005
  9.1427499999999995  1.0501300000000000 22.6188000000000002
  9.5997299999999992  8.5897199999999998 23.5533999999999999
  8.2599300000000007  4.3241300000000003  7.0515900000000000
  4.6425900000000002  0.2824410000000000 26.1329999999999991
  8.5635899999999996  3.4512499999999999  6.6792199999999999
  7.8717199999999998  8.1879100000000005  5.7868800000000000
  8.6530600000000000  7.5589899999999997  5.7594300000000000
  8.2929899999999996  0.2944600000000000  5.8389100000000003
  7.3565899999999997  2.1638600000000001 25.0513000000000012
  7.0377900000000002  4.0784700000000003  3.7867600000000001
  6.7275999999999998  1.4166000000000001 25.2517999999999994
  4.3103199999999999  8.0823900000000002  2.9323000000000001
  5.1659699999999997  7.7675200000000002  3.3072400000000002
  5.3112500000000002  7.8584399999999999  6.8388000000000000
  5.2518599999999998  7.8267600000000002  7.8263699999999998
  6.2695299999999996  7.8566399999999996  6.6714700000000002
  5.8625100000000003  2.7234500000000001  4.3317899999999998
  5.1592599999999997  2.4500000000000002  3.7652899999999998
  5.4810999999999996  2.4659000000000000  5.1744300000000001
  4.7233400000000003  5.1994699999999998 24.4365999999999985
  5.6683500000000002  5.0582300000000000 24.2625999999999991
  4.2986800000000001  4.4228500000000004 24.0671999999999997
  4.1683100000000000  7.6254799999999996  2.0878500000000000
  2.1357300000000001  3.7865000000000002  2.5728300000000002
  2.6443200000000000  3.0435800000000000  2.8144800000000001
  1.8689400000000000  8.7033600000000000  3.6498200000000001
  1.3485199999999999  0.5035660000000000  3.1186199999999999
  1.9760400000000000  0.8973630000000000  2.5105200000000001
  8.1259300000000003  8.3841000000000001 29.4285999999999994
  5.6783500000000000  5.0053200000000002  6.5582599999999998
  5.5357700000000003  5.9813700000000001  6.4102100000000002
  4.8284900000000004  4.5912699999999997  6.6046100000000001
  3.0697800000000002  4.1551400000000003 29.5787000000000013
  2.8904399999999999  4.4297700000000004 28.6004000000000005
  1.7194000000000000  7.0890399999999998 26.5926000000000009
  1.3231900000000001  6.9478200000000001 25.6512999999999991
  2.4833300000000000  5.7855100000000004 27.0169999999999995
  2.6125500000000001  4.7819700000000003 27.1145999999999994
  1.6453300000000000  0.2995620000000000 30.0466000000000015
  2.0757500000000002  4.3407099999999996 26.4177999999999997
  1.9710300000000001  8.2387200000000007  0.2803680000000000
  1.0292300000000001  7.2018899999999997 27.3000000000000007
  2.9279299999999999  8.2661899999999999 30.1811000000000007
  5.1584300000000001  2.2917000000000001 27.9710000000000001
  4.3212299999999999  2.5596600000000000 27.6544999999999987
  5.5206900000000001  2.9274700000000000 28.5736999999999988
  7.2818800000000001  7.1261099999999997 26.0454000000000008
  7.3625999999999996  6.9029600000000002 25.1097000000000001
  0.6696670000000000  2.7063600000000001 26.0305999999999997
  1.1607600000000000  3.3021900000000000 25.4566000000000017
  1.3018000000000001  6.6287399999999996  0.2270500000000000
  0.9067330000000000  5.7525000000000004  0.3132080000000000
  6.5806300000000002  7.8899200000000000 26.0841999999999992
  0.5349090000000000  5.7145299999999999  1.1982100000000000
  4.4963600000000001  6.3786600000000000  0.6065199999999999
  4.4626500000000000  6.8354999999999997 29.8891999999999989
  4.5012400000000001  5.4016000000000002  0.4265340000000000
  9.0591399999999993  3.7297500000000001  2.9780700000000002
  9.3819999999999997  2.8469799999999998  2.7788499999999998
  4.7042999999999999  0.8072240000000001 29.0930999999999997
  0.2054260000000000  3.0544099999999998  2.9197799999999998
  4.7362099999999998  0.0124605000000000 29.6280000000000001
  5.6769299999999996  8.7411600000000007 29.9080000000000013
  4.1605600000000003  7.5400200000000002 22.8805000000000014
  9.1947799999999997  3.6593900000000001 29.3750000000000000
  8.2927000000000000  4.0675499999999998 29.4837999999999987
  9.7304999999999993  4.2999000000000001 29.8916000000000004
  7.0522000000000000  5.3060200000000002 29.5716000000000001
  7.4289500000000004  6.1784499999999998 29.6692999999999998
  5.7154999999999996  5.3826000000000001 26.5103000000000009
  5.2924100000000003  5.1756099999999998 27.3641000000000005
  9.1455300000000008  2.0251100000000002  4.5409300000000004
  4.3611500000000003  4.9175100000000000 27.0899000000000001
  9.1279900000000005  1.7960400000000001  5.4938700000000003
  6.5526999999999997  5.4025100000000004 28.7319999999999993
 -0.1147880000000000  1.7954399999999999  5.7813800000000004
  2.0769700000000002  7.3819999999999997  6.7729900000000001
  2.7502800000000001  7.2065500000000000  7.5312900000000003
  1.9099500000000000  8.3107299999999995  6.6954300000000000
  8.9461099999999991  0.0178797000000000  1.9526200000000000
  0.4890510000000000  3.8083300000000002 24.9853999999999985
  7.4977400000000003  7.8382600000000000  2.7227399999999999
  6.7922599999999997  7.4630200000000002  3.2246000000000001
  5.0259099999999997  1.9298400000000000  7.6250200000000001
  6.9751500000000002  7.7827500000000001  4.2103700000000002
  4.6890700000000001  1.6957500000000001  6.7403700000000004
  9.1614299999999993  0.8974440000000000  2.2434200000000000
  4.7017800000000003  0.7046630000000000  6.6954300000000000
  7.2743599999999997  4.3426000000000000 23.5103000000000009
  7.1154700000000002  3.4104000000000001 23.9944999999999986
  7.0621000000000000  4.1508799999999999 22.5562000000000005
  9.1558799999999998  5.6186600000000002  6.2494199999999998
  1.3985300000000001  7.0747900000000001 23.3190999999999988
  0.6633640000000000  7.2017699999999998 23.9276000000000018
  0.7050100000000000  6.5893300000000004  3.3062999999999998
  0.0806346000000000  6.4232899999999997 23.7963999999999984
 10.0663999999999998  6.4336200000000003  2.7729900000000001
  9.3288799999999998  6.2710200000000000  3.4560300000000002
  3.4648500000000002  7.3360300000000001 23.5121000000000002
  3.8408400000000000  6.4922399999999998 23.9235000000000007
  9.6388099999999994  8.1638699999999993  2.1729900000000000
  1.5798300000000001  1.7396499999999999  6.5362700000000000
  1.3914800000000001  1.9503999999999999  7.4609399999999999
  2.5796299999999999  1.8681700000000001  6.4968700000000004
  5.7818300000000002  3.6815099999999998  1.2014499999999999
  6.2159899999999997  4.2222200000000001  0.5727110000000000
  6.0942900000000000  4.1211500000000001  2.0628600000000001
  1.7593700000000001  1.8629400000000000 28.8460000000000001
  2.3112200000000001  2.7351999999999999 29.1407999999999987
  0.8287380000000000  2.0943600000000000 29.0169999999999995
  9.4317499999999992  8.1106800000000003 27.8637000000000015
  8.9668200000000002  7.7395300000000002 27.1121000000000016
  9.5058699999999998  0.2873310000000000 27.5924000000000014
  2.5032199999999998  6.4241599999999996  3.9003600000000000
  3.2880900000000000  6.9486800000000004  3.6598999999999999
  2.6280399999999999  6.2391500000000004  4.8706300000000002
