Cu O  H  O  H  O  H  O  H  O  H  O  H  O  H  O  H  O  H  O  H  O  H  O  H  O  H  O  H  O  H  O  H  O  H  O  H  O  H  O  H  O  H  O  H  O  H  O  H  O  H  O  H  O  H  O  H  O  H  O  H  O  H  O  H  O  H  O  H  O  H  O  H  O  H  O  H  O  H  O  H  O  H  O  H  O  H  O  H  O  H  O  H  O  H  O  H  O  H  O  H 
 1.0000000000000000
    10.1403771778044529    0.0000000000000000    0.0000000000000000
     0.0000000000000000    8.7818242399346058    0.0000000000000000
     0.0000000000000000    0.0000000000000000   30.1311271579000000
 Cu  O   H   O   H   O   H   O   H   O   H   O   H   O   H   O   H   O   H   O   H   O   H   O   H   O   H   O   H   O   H   O   H   O   H   O   H   O   H   O   H   O   H   O   H   O   H   O   H   O   H   O   H   O   H   O   H   O   H   O   H   O   H   O   H   O   H   O   H   O   H   O   H   O   H   O   H   O   H   O   H   O   H   O   H   O   H   O   H   O   H   O   H   O   H   O   H   O   H   O   H  
  96   1   2   1   2   1   2   1   2   1   2   1   2   1   2   1   2   1   2   1   2   1   2   1   2   1   2   1   2   1   2   1   1   1   2   1   2   1   3   1   2   1   2   1   2   1   1   1   2   1   2   1   2   1   2   1   2   1   1   1   2   1   3   1   2   1   2   1   2   1   2   1   2   1   2   1   2   1   2   1   2   1   2   1   4   1   2   1   1   1   2   1   2   1   2   1   2   1   2   1   2
Cartesian
  7.0081400000000000  1.2416400000000001  9.8784200000000002
  9.6390700000000002  1.0343700000000000  9.9456399999999991
  1.8870600000000000  1.0764000000000000  9.9128900000000009
  4.5068599999999996  1.1464099999999999  9.8216300000000007
  8.2902699999999996  3.2182499999999998  9.7934999999999999
  0.6383980000000000  3.2959299999999998  9.8276800000000009
  3.0854300000000001  3.2334900000000002  9.9795200000000008
  5.6964800000000002  3.2819799999999999  9.9629999999999992
  9.5506300000000000  5.5501100000000001  9.8835300000000004
  1.8437900000000000  5.5262900000000004 10.0609999999999999
  4.4019300000000001  5.4126399999999997  9.7862799999999996
  6.9849300000000003  5.5180999999999996  9.9618900000000004
  0.6802240000000001  7.6557199999999996 10.0570000000000004
  3.2626800000000000  7.7122299999999999  9.8393599999999992
  5.7780399999999998  7.6517999999999997  9.8568800000000003
  8.2361299999999993  7.7630299999999997 10.0108999999999995
  5.6384800000000004  1.8678600000000001 12.0140999999999991
  8.2597400000000007  1.7514000000000001 11.9464000000000006
  0.5835200000000000  1.9871399999999999 11.9786999999999999
  3.2229500000000000  1.8550400000000000 11.9504000000000001
  6.9657299999999998  3.9784500000000000 12.0490999999999993
  9.5161099999999994  4.0129200000000003 11.9109999999999996
  1.9194400000000000  4.0535699999999997 11.9718999999999998
  4.5015000000000001  4.0121399999999996 11.9913000000000007
  8.1367799999999999  6.2302000000000000 12.0502000000000002
  0.5820510000000000  6.1940700000000000 12.0015999999999998
  3.2294999999999998  6.2369100000000000 11.9979999999999993
  5.7025699999999997  6.2145299999999999 11.9452999999999996
  9.5120699999999996  8.3529099999999996 11.9586000000000006
  2.0601099999999999  8.3994000000000000 11.9931999999999999
  4.4598000000000004  8.4954099999999997 11.9316999999999993
  6.9353100000000003  8.3786299999999994 12.0106999999999999
  5.7039600000000004  0.3659090000000000 14.0305999999999997
  8.2390600000000003  0.3659090000000000 14.0305999999999997
  0.6337739999999999  0.3659090000000000 14.0305999999999997
  3.1688700000000001  0.3659090000000000 14.0305999999999997
  6.9715100000000003  2.5613700000000001 14.0305999999999997
  9.5066000000000006  2.5613700000000001 14.0305999999999997
  1.9013199999999999  2.5613700000000001 14.0305999999999997
  4.4364200000000000  2.5613700000000001 14.0305999999999997
  8.2390600000000003  4.7568200000000003 14.0305999999999997
  0.6337739999999999  4.7568200000000003 14.0305999999999997
  3.1688700000000001  4.7568200000000003 14.0305999999999997
  5.7039600000000004  4.7568200000000003 14.0305999999999997
  9.5066000000000006  6.9522800000000000 14.0305999999999997
  1.9013199999999999  6.9522800000000000 14.0305999999999997
  4.4364200000000000  6.9522800000000000 14.0305999999999997
  6.9715100000000003  6.9522800000000000 14.0305999999999997
  6.9715100000000003  1.0977300000000001 16.1005000000000003
  9.5066000000000006  1.0977300000000001 16.1005000000000003
  1.9013199999999999  1.0977300000000001 16.1005000000000003
  4.4364200000000000  1.0977300000000001 16.1005000000000003
  8.2390600000000003  3.2931800000000000 16.1005000000000003
  0.6337739999999999  3.2931800000000000 16.1005000000000003
  3.1688700000000001  3.2931800000000000 16.1005000000000003
  5.7039600000000004  3.2931800000000000 16.1005000000000003
  9.5066000000000006  5.4886400000000002 16.1005000000000003
  1.9013199999999999  5.4886400000000002 16.1005000000000003
  4.4364200000000000  5.4886400000000002 16.1005000000000003
  6.9715100000000003  5.4886400000000002 16.1005000000000003
  0.6337739999999999  7.6840999999999999 16.1005000000000003
  3.1688700000000001  7.6840999999999999 16.1005000000000003
  5.7039600000000004  7.6840999999999999 16.1005000000000003
  8.2390600000000003  7.6840999999999999 16.1005000000000003
  5.6973599999999998  1.8921699999999999 18.1737000000000002
  8.2554800000000004  1.7425700000000000 18.1172000000000004
  0.5974699999999999  1.9386500000000000 18.2208000000000006
  3.1454300000000002  1.8068599999999999 18.1761000000000017
  6.9606599999999998  4.0676899999999998 18.2726000000000006
  9.3589900000000004  3.9567999999999999 18.0229999999999997
  1.9110300000000000  4.1265599999999996 18.0431999999999988
  4.4543900000000001  4.1223400000000003 18.1724999999999994
  8.1021900000000002  6.2434099999999999 18.3192999999999984
  0.5458030000000000  6.1579899999999999 18.2837999999999994
  3.1667100000000001  6.2689599999999999 18.1584000000000003
  5.6057499999999996  6.3059000000000003 18.2027000000000001
  9.5368800000000000  8.3268500000000003 18.1387000000000000
  1.8421099999999999  8.5048100000000009 18.1234000000000002
  4.4622200000000003  8.4558199999999992 18.2091999999999992
  6.8782199999999998  8.4762000000000004 18.1243000000000016
  5.5518599999999996  0.4880870000000000 20.1573999999999991
  8.0567200000000003  0.4229140000000000 20.1174999999999997
  0.6274590000000000  0.5571780000000000 20.1487000000000016
  3.0776300000000001  0.4674690000000000 20.3366000000000007
  6.9372800000000003  2.4871799999999999 20.1783999999999999
  9.3507700000000007  2.6768000000000001 20.2326000000000015
  1.8987300000000000  2.6336599999999999 20.2114000000000011
  4.3396299999999997  2.6222400000000001 20.1765000000000008
  8.2559000000000005  4.8370499999999996 20.1922999999999995
  0.5842820000000000  4.7657499999999997 20.2195000000000000
  3.0556100000000002  4.7532600000000000 20.1747000000000014
  5.6602600000000001  4.8513400000000004 20.2544000000000004
  9.3886500000000002  6.8426200000000001 20.1929000000000016
  1.7516499999999999  7.0420800000000003 20.1460000000000008
  4.3279300000000003  7.0960900000000002 20.1053999999999995
  6.8122100000000003  6.9815399999999999 20.1812000000000005
 10.0493000000000006  6.3579299999999996  3.5399799999999999
 10.0134000000000007  5.5346599999999997  2.9847700000000001
  0.5355940000000000  6.1801399999999997  4.2239199999999997
  7.8981000000000003  3.9580099999999998 26.5425000000000004
  8.3820899999999998  4.0652600000000003 27.4112000000000009
  8.1109399999999994  3.0583200000000001 26.3625000000000007
  6.2188200000000000  7.4500599999999997  6.8030200000000001
  9.4296600000000002  0.6948839999999999 26.9481999999999999
  6.6995100000000001  7.6596599999999997  7.6628600000000002
  7.7894199999999998  4.6275700000000004  6.6264200000000004
  8.7640799999999999  4.5080200000000001  6.5449299999999999
  7.8259400000000001  5.0131100000000002  7.5668699999999998
  2.4086599999999998  0.3797610000000000 27.4441999999999986
  2.5743800000000001  0.1820210000000000 26.4402000000000008
  3.0009500000000000  8.5500900000000009 27.9584000000000010
  0.1118650000000000  4.0839800000000004  2.1934000000000000
  4.2238699999999998  5.3955700000000002 27.0074000000000005
  0.5790000000000000  4.0176699999999999  1.3415699999999999
  3.6486999999999998  8.0051500000000004 29.8506999999999998
  1.2139100000000000  2.8861800000000000 24.8784999999999989
  3.7408600000000001  8.8791700000000002  0.1126190000000000
  5.0398500000000004  4.9702900000000003 27.4421999999999997
  4.6583100000000002  7.1679000000000004  3.0882499999999999
  5.7893999999999997  4.8772500000000001 26.7527000000000008
  4.0803300000000000  2.5898599999999998 28.7053000000000011
  3.9587100000000000  1.9709700000000001 27.9874000000000009
  4.6710000000000003  6.5716000000000001  6.8780500000000000
  3.8098900000000002  6.2666300000000001  6.6235299999999997
  3.8119800000000001  5.3330299999999999  6.9435900000000004
  2.0516299999999998  6.8194200000000000  2.4103400000000001
  5.1823899999999998  8.0302199999999999  3.0920700000000001
  6.0021500000000003  7.7136800000000001  3.5137499999999999
  2.3453900000000001  6.6466799999999999 22.9198999999999984
  7.1870599999999998  6.3466399999999998  4.4429900000000000
  8.1140100000000004  6.2258699999999996  4.1801599999999999
  7.1318299999999999  6.5669399999999998  5.3561300000000003
  1.8743799999999999  2.5976100000000000 25.5648000000000017
  0.6050179999999999  3.4238900000000001  2.7267399999999999
  2.5211299999999999  2.0972100000000000 25.0226000000000006
  5.9582600000000001  3.7194699999999998  4.3483000000000001
  5.9414800000000003  3.1776100000000000  5.1585500000000000
  6.4485000000000001  4.5591999999999997  4.4732000000000003
  9.7441600000000008  1.5877800000000000 27.2473999999999990
  4.5458299999999996  7.6369999999999996 29.7781999999999982
  0.2931790000000000  1.7741700000000000 26.6040999999999990
  1.2491399999999999  5.6986400000000001 28.3948000000000000
  1.7815200000000000  6.4039500000000000 28.8308999999999997
  5.2128100000000002  3.3768099999999999 24.8033000000000001
  6.0779699999999997  3.1870799999999999 24.3494999999999990
  4.6903300000000003  2.6899799999999998 24.3188999999999993
  3.0880899999999998  5.9012000000000002  3.9079999999999999
  3.3881100000000002  5.9347399999999997  4.8202100000000003
  2.9000300000000001  4.9330400000000001  3.7436099999999999
  3.3937200000000001  1.5187299999999999  4.5114299999999998
  3.0783000000000000  1.0036799999999999  5.2583700000000002
  3.7723499999999999  0.8720620000000000  3.9368099999999999
  1.5451999999999999  5.6517799999999996 27.4945999999999984
  1.9747500000000000  7.1005599999999998  1.5383500000000001
  2.7719700000000000  7.4922000000000004  1.2643899999999999
  8.5357800000000008  3.5005799999999998  2.0131000000000001
  7.5325400000000000  3.3325499999999999  1.9187399999999999
  7.1945699999999997  3.1587499999999999  2.8162199999999999
  4.5971299999999999  3.3368000000000002 28.4073999999999991
  9.5693400000000004  8.6747999999999994  6.6630200000000004
  0.3545750000000000  8.3528199999999995  6.7046400000000004
  9.3984199999999998  0.2214070000000000  7.5255599999999996
  1.8622399999999999  6.4833800000000004 23.7412999999999990
  1.0701499999999999  7.0239700000000003 23.6500999999999983
  8.7433899999999998  7.0949600000000004 29.9797000000000011
  8.0375800000000002  6.5173399999999999  0.2175170000000000
  0.5962590000000000  4.8961800000000002 23.7697000000000003
  0.4046530000000000  3.9706600000000001 23.5381999999999998
  2.7703600000000002  7.8447300000000002  6.7155800000000001
  0.3099130000000000  4.0431900000000001 22.5512000000000015
  2.3947799999999999 -0.0215172000000000  6.5565699999999998
  8.2804500000000001  7.6135099999999998 29.2457999999999991
  2.4498500000000001  0.3468240000000000  7.4110199999999997
  8.1811399999999992  8.1902699999999999 26.8594000000000008
  7.5673599999999999  8.8694900000000008 26.4898999999999987
  8.2044300000000003  7.5341899999999997 26.1326000000000001
  9.5058299999999996  8.0536399999999997 23.3333000000000013
  9.0647900000000003  0.1101740000000000 23.3220999999999989
  5.1267399999999999  5.1401199999999996 24.0676999999999985
  5.4812500000000002  6.0012100000000004 23.7763999999999989
  9.0242500000000003  5.1272300000000000 29.1631000000000000
  8.6312599999999993  4.2943899999999999 28.9617000000000004
  8.9490900000000000  7.2821199999999999 23.6377999999999986
  8.8326300000000000  3.6423100000000002 29.6514999999999986
  4.5272100000000002  3.2739600000000002  2.2496499999999999
  5.0803500000000001  3.3275299999999999  3.1187000000000000
  5.1094700000000000  3.7080600000000001  1.6165700000000001
  0.7030510000000000  8.1108799999999999  1.6110899999999999
 10.0248000000000008 -0.0562287000000000  1.5673999999999999
  6.0099099999999996  5.7876300000000001  1.1115100000000000
  9.3793799999999994  8.1196400000000004  1.0558200000000000
  6.9131499999999999  5.8990400000000003  1.4994700000000001
  7.1816599999999999  4.9847700000000001  1.8277099999999999
  3.6344599999999998  4.7932499999999996  0.3393080000000000
  3.3979100000000000  3.2622700000000000  6.8503299999999996
  3.6378499999999998  2.8251300000000001  7.6407299999999996
  3.9785400000000002  2.9686499999999998  6.1495100000000003
  6.3791200000000003  1.4757800000000001 26.7747999999999990
  6.1437499999999998  2.3738999999999999 26.4017000000000017
  8.9075100000000003  0.4309100000000000  4.5268100000000002
  8.9384399999999999  1.2476900000000000  4.0086800000000000
  2.2762500000000001  2.8236500000000002  4.3575499999999998
  9.4709699999999994  0.8182340000000000  3.2797399999999999
  1.5840300000000000  3.5248400000000002  4.1888699999999996
  6.5034299999999998  1.6092000000000000 27.7270000000000003
  0.9836170000000000  3.4153099999999998  4.9394700000000000
  0.5686099999999999  2.8046000000000002  6.9152500000000003
  1.5142400000000000  3.0563600000000002  6.7289800000000000
  0.8157810000000000  1.8857400000000000  7.1268500000000001
  3.5176599999999998  1.7107300000000001 23.4069000000000003
  5.7954499999999998  5.8128000000000002 22.8549000000000007
  8.0375300000000003  1.4197299999999999 29.6136000000000017
  7.2276499999999997  0.9414450000000000 29.4279000000000011
  9.9552999999999994  1.6736200000000001 29.1670000000000016
  6.5655700000000001  1.0201499999999999 30.1314999999999991
  9.6621000000000006  2.0459999999999998 30.0263999999999989
  3.4021499999999998  1.8930199999999999 22.4231000000000016
  9.9070900000000002  1.3712500000000001  0.6002470000000000
  0.4484680000000000  5.8437999999999999  6.7035700000000000
  9.8484300000000005  6.3913599999999997  6.9616100000000003
  0.9258100000000000  5.6177599999999996  7.5014900000000004
  6.5632099999999998  8.2353400000000008  6.3695100000000000
  2.6154299999999999  3.1360600000000001 29.9602000000000004
  1.9323999999999999  3.8161299999999998  0.1579780000000000
  8.4678599999999999  3.3394100000000000 23.5471000000000004
  1.7631399999999999  4.3514499999999998 29.4711999999999996
  7.5450799999999996  3.0865700000000000 23.3648999999999987
  7.5818199999999996  3.1119599999999998 22.3811999999999998
  4.5567200000000003  5.0074500000000004 -0.0369118000000000
  4.6493000000000002  4.8665099999999999 29.1617999999999995
  3.9782400000000000  0.8657629999999999 23.5138999999999996
  5.0641400000000001  0.9196850000000000  1.0656900000000000
  5.1870599999999998  0.2205150000000000  1.7425800000000000
  4.8696799999999998  1.7560000000000000  1.5420199999999999
  4.6464999999999996  8.5934699999999999 25.2587000000000010
  5.4025699999999999  0.1618060000000000 25.7630000000000017
  4.9379200000000001  7.7328099999999997 25.0014000000000003
  8.1320099999999993  6.2170800000000002 24.7672999999999988
  8.1446400000000008  5.5987999999999998 25.5237000000000016
  7.2077600000000004  6.1375900000000003 24.3577000000000012
  2.6531300000000000  5.1464600000000003 26.1312999999999995
  2.3969499999999999  4.2144300000000001 25.8808000000000007
  2.4577399999999998  5.7542700000000000 25.4544999999999995
  6.3332199999999998  2.1648700000000001  6.7341100000000003
  7.1242799999999997  2.7242799999999998  6.7946600000000004
  6.2943899999999999  1.7103699999999999  7.5862699999999998
