Cu O  H  O  H  O  H  O  H  O  H  O  H  O  H  O  H  O  H  O  H  O  H  O  H  O  H  O  H  O  H  O  H  O  H  O  H  O  H  O  H  O  H  O  H  O  H  O  H  O  H  O  H  O  H  O  H  O  H  O  H  O  H  O  H  O  H  O  H  O  H  O  H  O  H  O  H  O  H  O  H  O  H  O  H  O  H  O  H  O  H  O  H  O  H  O  H  O  H  O  H 
 1.0000000000000000
    10.1403771778044529    0.0000000000000000    0.0000000000000000
     0.0000000000000000    8.7818242399346058    0.0000000000000000
     0.0000000000000000    0.0000000000000000   30.1311271579000000
 Cu  O   H   O   H   O   H   O   H   O   H   O   H   O   H   O   H   O   H   O   H   O   H   O   H   O   H   O   H   O   H   O   H   O   H   O   H   O   H   O   H   O   H   O   H   O   H   O   H   O   H   O   H   O   H   O   H   O   H   O   H   O   H   O   H   O   H   O   H   O   H   O   H   O   H   O   H   O   H   O   H   O   H   O   H   O   H   O   H   O   H   O   H   O   H   O   H   O   H   O   H  
  96   1   2   1   2   1   2   1   2   1   2   1   2   1   2   1   2   1   2   1   2   1   2   1   2   1   2   1   2   1   2   1   1   1   2   1   2   1   3   1   2   1   2   1   2   1   1   1   2   1   2   1   2   1   2   1   2   1   1   1   2   1   3   1   2   1   2   1   2   1   2   1   2   1   2   1   2   1   2   1   2   1   2   1   4   1   2   1   1   1   2   1   2   1   2   1   2   1   2   1   2
Cartesian
  7.1037600000000003  1.1826200000000000  9.9227500000000006
  9.5188400000000009  1.1461200000000000  9.8834400000000002
  1.8767400000000001  1.0483600000000000  9.9768000000000008
  4.5313400000000001  1.0573800000000000  9.8805999999999994
  8.4207900000000002  3.4131499999999999  9.8277400000000004
  0.6585220000000001  3.2972100000000002  9.9864099999999993
  3.1618900000000001  3.2083599999999999  9.9538399999999996
  5.8807400000000003  3.3351500000000001  9.8108599999999999
  9.6526399999999999  5.5467800000000000  9.9972899999999996
  1.9392000000000000  5.4656300000000000  9.9382000000000001
  4.4132600000000002  5.4765100000000002  9.9672499999999999
  7.1403900000000000  5.4190500000000004  9.9082299999999996
  0.7387620000000000  7.6816300000000002  9.9102499999999996
  3.1965300000000001  7.6469500000000004  9.9410200000000000
  5.7935299999999996  7.6099300000000003  9.9390099999999997
  8.4379500000000007  7.6443899999999996  9.9469300000000000
  5.6658900000000001  1.9098800000000000 12.0008999999999997
  8.1955799999999996  1.9134899999999999 12.0274000000000001
  0.6314850000000000  1.9419299999999999 12.0408000000000008
  3.0593300000000001  1.7907000000000000 12.0061000000000000
  6.9578400000000000  4.0868200000000003 11.8285999999999998
  9.5823800000000006  4.0380500000000001 12.0382999999999996
  1.8762600000000000  4.1260199999999996 12.0137000000000000
  4.3487799999999996  4.0618800000000004 11.9407999999999994
  8.3668300000000002  6.1966200000000002 11.9859000000000009
  0.7465430000000000  6.2365700000000004 11.9817999999999998
  3.1636500000000001  6.3812800000000003 11.9634000000000000
  5.8534800000000002  6.1998600000000001 12.0742999999999991
  9.4899600000000000  8.3353300000000008 11.9677000000000007
  1.8365400000000001  8.5411800000000007 12.0929000000000002
  4.3653800000000000  8.4700799999999994 11.9467999999999996
  6.9766000000000004  8.5493699999999997 11.9304000000000006
  5.7039600000000004  0.3659090000000000 14.0305999999999997
  8.2390600000000003  0.3659090000000000 14.0305999999999997
  0.6337739999999999  0.3659090000000000 14.0305999999999997
  3.1688700000000001  0.3659090000000000 14.0305999999999997
  6.9715100000000003  2.5613700000000001 14.0305999999999997
  9.5066000000000006  2.5613700000000001 14.0305999999999997
  1.9013199999999999  2.5613700000000001 14.0305999999999997
  4.4364200000000000  2.5613700000000001 14.0305999999999997
  8.2390600000000003  4.7568200000000003 14.0305999999999997
  0.6337739999999999  4.7568200000000003 14.0305999999999997
  3.1688700000000001  4.7568200000000003 14.0305999999999997
  5.7039600000000004  4.7568200000000003 14.0305999999999997
  9.5066000000000006  6.9522800000000000 14.0305999999999997
  1.9013199999999999  6.9522800000000000 14.0305999999999997
  4.4364200000000000  6.9522800000000000 14.0305999999999997
  6.9715100000000003  6.9522800000000000 14.0305999999999997
  6.9715100000000003  1.0977300000000001 16.1005000000000003
  9.5066000000000006  1.0977300000000001 16.1005000000000003
  1.9013199999999999  1.0977300000000001 16.1005000000000003
  4.4364200000000000  1.0977300000000001 16.1005000000000003
  8.2390600000000003  3.2931800000000000 16.1005000000000003
  0.6337739999999999  3.2931800000000000 16.1005000000000003
  3.1688700000000001  3.2931800000000000 16.1005000000000003
  5.7039600000000004  3.2931800000000000 16.1005000000000003
  9.5066000000000006  5.4886400000000002 16.1005000000000003
  1.9013199999999999  5.4886400000000002 16.1005000000000003
  4.4364200000000000  5.4886400000000002 16.1005000000000003
  6.9715100000000003  5.4886400000000002 16.1005000000000003
  0.6337739999999999  7.6840999999999999 16.1005000000000003
  3.1688700000000001  7.6840999999999999 16.1005000000000003
  5.7039600000000004  7.6840999999999999 16.1005000000000003
  8.2390600000000003  7.6840999999999999 16.1005000000000003
  5.5636000000000001  1.7630800000000000 18.2072000000000003
  8.0982000000000003  1.7903500000000001 18.4534999999999982
  0.6253900000000000  1.8728899999999999 18.1606999999999985
  3.0612800000000000  1.7525800000000000 18.3079000000000001
  6.8295700000000004  3.9504500000000000 18.1282999999999994
  9.2772100000000002  4.0663299999999998 18.1627000000000010
  1.7036700000000000  4.0243599999999997 18.0797999999999988
  4.2606799999999998  3.9369700000000001 18.1770999999999994
  8.0559499999999993  6.2226699999999999 18.1970999999999989
  0.4614760000000000  6.2984299999999998 18.1661999999999999
  2.9744000000000002  6.2853000000000003 18.1500999999999983
  5.5201000000000002  6.2217099999999999 18.1992000000000012
  9.4176500000000001  8.4566400000000002 18.1627000000000010
  1.7927200000000001  8.4445599999999992 18.1393999999999984
  4.4010800000000003  8.4660700000000002 18.0872999999999990
  6.9070499999999999  8.3679699999999997 18.4189000000000007
  5.3593000000000002  0.3412640000000000 20.2496000000000009
  8.2187800000000006  0.3972850000000000 20.4445000000000014
  0.3980900000000000  0.3877140000000000 20.2295000000000016
  2.8306900000000002  0.4161520000000000 20.1792000000000016
  6.7442099999999998  2.5886300000000002 20.4202000000000012
  9.3754799999999996  2.5482200000000002 20.2234000000000016
  1.8079700000000001  2.5934900000000001 20.3692999999999991
  4.3399999999999999  2.6581600000000001 20.2606000000000002
  7.9670300000000003  4.9237000000000002 20.3686000000000007
  0.4229380000000000  4.8283600000000000 20.2218000000000018
  3.0131899999999998  4.7337300000000004 20.1240999999999985
  5.4956899999999997  5.0300599999999998 20.1890999999999998
  9.2519700000000000  6.9788699999999997 20.2855999999999987
  1.6362600000000000  7.0077299999999996 20.1778000000000013
  4.1964699999999997  6.9969700000000001 20.2642999999999986
  6.6777199999999999  7.1232199999999999 20.5696000000000012
  8.2976399999999995  3.1998500000000001 23.2786000000000008
  8.1373700000000007  3.1941799999999998 22.3062000000000005
  9.2134699999999992  3.1716199999999999 23.3557999999999986
  8.7064699999999995  7.2614599999999996  1.4793700000000001
  7.7572500000000000  7.3697400000000002  1.6933600000000000
  9.0916599999999992  8.1819900000000008  1.7101000000000000
  1.4582200000000001  8.4762299999999993 23.8155000000000001
  9.5922699999999992  3.3435600000000001 29.6695999999999991
  1.5817500000000000  8.4308800000000002 22.8484000000000016
  4.9822800000000003  2.6515399999999998 23.6490000000000009
  5.0489400000000000  2.1919200000000001 22.8150000000000013
  5.4287999999999998  3.5144199999999999 23.4398000000000017
  7.3416800000000002  2.7135099999999999 27.4680999999999997
  6.5642100000000001  3.3447600000000000 27.4578999999999986
  6.8131899999999996  1.9053700000000000 27.2247999999999983
  3.0684300000000002  3.0354100000000002 25.4331999999999994
  6.8295500000000002  6.3448900000000004 29.5410000000000004
  2.6386799999999999  3.7361399999999998 24.9773999999999994
  0.1823120000000000  5.1279000000000003  1.8096600000000000
  7.6245700000000003  0.7307810000000000  5.9072399999999998
  9.7688199999999998  5.8959200000000003  1.5783000000000000
  5.8572100000000002  6.1309300000000002 29.6767000000000003
  9.0216899999999995  7.0842499999999999 28.9864999999999995
  5.9932299999999996  5.1618700000000004 29.7678000000000011
  6.4440099999999996  5.0846799999999996 24.0962999999999994
  6.2628100000000000  5.9652099999999999 23.7543000000000006
  4.1103399999999999  6.6014799999999996 23.4461000000000013
  4.5434700000000001  7.4846599999999999 23.7383999999999986
  4.3790699999999996  8.0353700000000003 22.9780000000000015
  2.5768599999999999  0.3791300000000000  5.3038900000000000
  8.2712699999999995  7.0062300000000004 28.3798999999999992
  8.4460300000000004  6.1290100000000001 27.9029999999999987
 10.2032000000000007  5.2395100000000001 23.8769999999999989
  9.1637799999999991  8.6656399999999998 26.1022999999999996
  8.4169999999999998  0.3972970000000000 25.8389999999999986
  8.7536699999999996  8.1078600000000005 26.7840999999999987
  8.0030699999999992  0.4470840000000000  5.0560200000000002
  3.6686500000000000  2.7378300000000002 24.7501999999999995
  7.2455900000000000  0.4365060000000000  4.4066400000000003
  3.6528499999999999  8.4363200000000003 26.0091000000000001
  2.7090800000000002 -0.1869800000000000 26.1927999999999983
  3.5924600000000000  8.0080600000000004 25.1297999999999995
  8.9459199999999992  2.5969500000000001 29.7165999999999997
  9.8641299999999994  4.7433699999999996  2.5670500000000001
  8.5111200000000000  2.5558299999999998 28.8155999999999999
  6.1170799999999996  8.6912099999999999 27.2505999999999986
  5.2021100000000002  8.7588600000000003 26.9330999999999996
  3.0966000000000000  8.5861499999999999  1.0984000000000000
  3.1228899999999999  7.6347899999999997  1.4019100000000000
  2.2962799999999999  0.0211016000000000  1.6482500000000000
 10.0320999999999998  0.7579979999999999  1.2859799999999999
  0.1123700000000000  1.4296800000000001  1.9393800000000001
  9.8294499999999996  1.2586999999999999  0.4912440000000000
  0.8016660000000000  3.1203500000000002 23.4172000000000011
  1.1590199999999999  2.3267799999999998 23.8471000000000011
  0.8301510000000000  2.9187300000000000 22.4009000000000000
  6.1558000000000002  8.2173400000000001 28.1083999999999996
  2.7743699999999998  1.3220499999999999  5.5876999999999999
  3.4412500000000001  1.6981800000000000  5.0575599999999996
  1.8682500000000000  3.5451000000000001 28.6717000000000013
  1.3327700000000000  4.2879800000000001 28.9510000000000005
  0.9001870000000000  4.6941800000000002 28.2347000000000001
  7.1660500000000003  4.7491399999999997 23.6173000000000002
  5.8508300000000002  6.9821400000000002  2.1753600000000000
  6.1594899999999999  6.1073500000000003  2.6256400000000002
  5.7008500000000000  6.5824800000000003  1.2626100000000000
 -0.0762541000000000  5.6093700000000002 24.7045999999999992
  9.3473299999999995  6.2217500000000001 24.5429999999999993
  8.6668299999999991  7.2448800000000002 23.2413999999999987
  8.2315600000000000  7.1243900000000000 22.3634999999999984
  5.7301200000000003  2.9297800000000001  0.1577820000000000
  6.4094699999999998  3.6041699999999999  0.4988780000000000
  6.4906199999999998  6.7675700000000001  6.1874099999999999
  7.2462999999999997  3.3675299999999999  0.1032020000000000
  7.1580000000000004  6.0076299999999998  6.1517200000000001
  8.0441000000000003  7.8951200000000004 23.6335000000000015
  6.5349899999999996  5.2887399999999998  6.3217499999999998
  9.8374900000000007  7.5606499999999999  6.3159000000000001
 10.0123999999999995  8.1414200000000001  7.0561999999999996
  9.0606200000000001  7.8708000000000000  5.8674200000000001
  1.9939100000000001  7.6704100000000004  5.2795800000000002
  1.0625400000000000  7.6465500000000004  5.5825300000000002
  3.2235800000000001  5.8352300000000001  2.9291399999999999
  2.4651800000000001  6.3252699999999997  2.6877599999999999
  2.7726899999999999  2.5674600000000001 27.0900999999999996
  2.6998099999999998  2.2749100000000002 28.0489999999999995
  2.0180500000000001  7.2714800000000004  4.3967099999999997
  2.1624699999999999  1.4310300000000000 27.8221999999999987
  4.5547700000000004  1.7630699999999999 -0.1282800000000000
  4.1430199999999999  1.0995600000000001  0.4512190000000000
  3.9312200000000002  1.6499100000000000 29.2452000000000005
  4.9140800000000002  4.0071599999999998  7.0107799999999996
  5.7636099999999999  3.6798600000000001  7.2800000000000002
  7.2697200000000004  1.8977800000000000 24.2620000000000005
  5.7817299999999996  2.8674900000000001  6.7812299999999999
  7.2144899999999996  0.9303030000000000 24.6058999999999983
  6.3368799999999998  0.7360550000000000 24.8546000000000014
  2.7736399999999999  2.7816800000000002  1.1946900000000000
  4.5134600000000002  7.2457700000000003  6.7607299999999997
  3.6304300000000000  7.3378199999999998  6.2849599999999999
  4.3197000000000001  7.4424999999999999  7.7218499999999999
  9.1973000000000003  4.7432800000000004 27.0150000000000006
  8.7000399999999996  3.9011000000000000 26.8521999999999998
  8.7784099999999992  5.0852300000000001  7.0617099999999997
  9.7319399999999998  5.0078500000000004  6.9838699999999996
  1.2761499999999999  1.3523600000000000  6.9347500000000002
 -0.2134730000000000  5.9493299999999998  6.8876299999999997
  0.3144650000000000  1.2842800000000001  7.1066700000000003
  9.6225799999999992  4.8651400000000002 26.1104999999999983
  0.0691407000000000  2.1242000000000001  7.5986500000000001
  2.9499499999999999  4.1409799999999999  7.3644800000000004
  2.8831500000000001  4.6204000000000001  6.5224799999999998
  2.8126300000000000  3.2148200000000000  7.1048299999999998
  2.7683700000000000  5.4534000000000002 23.2310000000000016
  1.7840800000000001  5.7908799999999996  2.2346200000000001
  0.8534360000000000  1.8224199999999999  4.2826399999999998
 -0.0603192000000000  2.0150299999999999  3.9978400000000001
  3.7230599999999998  3.6213199999999999  3.4685199999999998
  9.5491299999999999  1.3876700000000000  4.4667300000000001
  4.2294799999999997  3.8279500000000000  4.3080999999999996
  1.9811000000000001  5.9990199999999998 23.4004000000000012
  5.1423899999999998  3.8779599999999999  3.9114800000000001
  5.4950200000000002  0.5021860000000000  3.6092700000000000
  5.5581699999999996  8.5437100000000008  2.9492500000000001
  5.1947099999999997  1.2494900000000000  3.1279100000000000
  0.5348880000000000  8.2309800000000006 24.1090000000000018
  3.7961600000000000  7.0919499999999998 27.0863000000000014
  3.7787999999999999  6.4015899999999997 27.7256000000000000
  6.0069100000000004  4.6924400000000004 25.8827999999999996
  4.5767400000000000  6.2101300000000004 28.2458999999999989
  5.7335900000000004  4.6515300000000002 26.8053999999999988
  4.8319500000000000  4.9960300000000002 26.8035999999999994
  2.3234699999999999  3.3280300000000000  1.7710999999999999
  1.7822499999999999  3.8876200000000001  1.1841100000000000
  2.8127900000000001  5.0789299999999997 22.3490000000000002
  0.8667160000000000  7.2521599999999999 29.3358999999999988
  0.7238910000000000  7.6604299999999999  0.0495190000000000
  1.3016900000000000  6.4607500000000000 29.5150000000000006
  1.3372900000000001  0.2230630000000000 27.3646999999999991
  0.4627600000000000  0.1898670000000000 26.9183999999999983
  1.3580300000000001  8.2342200000000005 27.9562999999999988
  6.5353399999999997  4.4381100000000000  3.2100499999999998
  6.5747999999999998  3.9434600000000000  2.3423099999999999
  7.4065500000000002  4.1989599999999996  3.6854399999999998
  8.9470399999999994  4.2236599999999997  4.1521699999999999
  8.8664500000000004  4.8181799999999999  4.9445699999999997
  9.3781599999999994  3.3645499999999999  4.4741700000000000
  6.1738299999999997  0.8592670000000000  7.0154399999999999
  6.2468899999999996  0.6728280000000000  7.9928200000000000
  5.4901499999999999  0.2845300000000000  6.6286300000000002
