Cu O  H  O  H  O  H  O  H  O  H  O  H  O  H  O  H  O  H  O  H  O  H  O  H  O  H  O  H  O  H  O  H  O  H  O  H  O  H  O  H  O  H  O  H  O  H  O  H  O  H  O  H  O  H  O  H  O  H  O  H  O  H  O  H  O  H  O  H  O  H  O  H  O  H  O  H  O  H  O  H  O  H  O  H  O  H  O  H  O  H  O  H  O  H  O  H  O  H  O  H 
 1.0000000000000000
    10.1403771778044529    0.0000000000000000    0.0000000000000000
     0.0000000000000000    8.7818242399346058    0.0000000000000000
     0.0000000000000000    0.0000000000000000   30.1311271579000000
 Cu  O   H   O   H   O   H   O   H   O   H   O   H   O   H   O   H   O   H   O   H   O   H   O   H   O   H   O   H   O   H   O   H   O   H   O   H   O   H   O   H   O   H   O   H   O   H   O   H   O   H   O   H   O   H   O   H   O   H   O   H   O   H   O   H   O   H   O   H   O   H   O   H   O   H   O   H   O   H   O   H   O   H   O   H   O   H   O   H   O   H   O   H   O   H   O   H   O   H   O   H  
  96   1   2   1   2   1   2   1   2   1   2   1   2   1   2   1   2   1   2   1   2   1   2   1   2   1   2   1   2   1   2   1   1   1   2   1   2   1   3   1   2   1   2   1   2   1   1   1   2   1   2   1   2   1   2   1   2   1   1   1   2   1   3   1   2   1   2   1   2   1   2   1   2   1   2   1   2   1   2   1   2   1   2   1   4   1   2   1   1   1   2   1   2   1   2   1   2   1   2   1   2
Cartesian
  7.0663099999999996  0.9926220000000000  9.8958499999999994
  9.5587199999999992  1.1139300000000001  9.9081200000000003
  1.8410599999999999  1.1661900000000001  9.7911900000000003
  4.4315199999999999  1.2592900000000000 10.0175000000000001
  8.4111100000000008  3.3340600000000000  9.8022899999999993
  0.6662810000000000  3.4321700000000002  9.8422199999999993
  2.9753799999999999  3.3688699999999998  9.8291400000000007
  5.7946600000000004  3.3815000000000000  9.8507800000000003
  9.5247600000000006  5.5861599999999996  9.8511500000000005
  1.8992800000000001  5.5336400000000001  9.8836999999999993
  4.3946500000000004  5.4607500000000000  9.6818500000000007
  7.0508400000000000  5.4538900000000003  9.7331500000000002
  0.7214950000000000  7.7210599999999996  9.8283799999999992
  3.3297400000000001  7.7214200000000002  9.8787199999999995
  5.7523600000000004  7.6251699999999998  9.9029000000000007
  8.3434100000000004  7.5977600000000001 10.0723000000000003
  5.6109299999999998  1.8954000000000000 12.0144000000000002
  8.1246399999999994  1.8275600000000001 11.9359999999999999
  0.5376060000000000  1.8480600000000000 11.9164999999999992
  3.1367400000000001  1.9440999999999999 11.9125999999999994
  7.0925799999999999  4.0869000000000000 11.8298000000000005
  9.5743700000000000  3.9171299999999998 11.8521999999999998
  1.9679700000000000  4.0345100000000000 12.0238999999999994
  4.5024899999999999  4.0539800000000001 11.9164999999999992
  8.2761899999999997  6.1400199999999998 12.0081000000000007
  0.5381680000000000  6.3742099999999997 11.8810000000000002
  3.1132700000000000  6.2634600000000002 11.9442000000000004
  5.5824800000000003  6.2488099999999998 11.9182000000000006
  9.4362600000000008  8.4196600000000004 11.9275000000000002
  1.9160200000000001  8.5170800000000000 11.9606999999999992
  4.4555300000000004  8.4917800000000003 11.8714999999999993
  6.8623399999999997  8.5226000000000006 11.9757999999999996
  5.7039600000000004  0.3659090000000000 14.0305999999999997
  8.2390600000000003  0.3659090000000000 14.0305999999999997
  0.6337739999999999  0.3659090000000000 14.0305999999999997
  3.1688700000000001  0.3659090000000000 14.0305999999999997
  6.9715100000000003  2.5613700000000001 14.0305999999999997
  9.5066000000000006  2.5613700000000001 14.0305999999999997
  1.9013199999999999  2.5613700000000001 14.0305999999999997
  4.4364200000000000  2.5613700000000001 14.0305999999999997
  8.2390600000000003  4.7568200000000003 14.0305999999999997
  0.6337739999999999  4.7568200000000003 14.0305999999999997
  3.1688700000000001  4.7568200000000003 14.0305999999999997
  5.7039600000000004  4.7568200000000003 14.0305999999999997
  9.5066000000000006  6.9522800000000000 14.0305999999999997
  1.9013199999999999  6.9522800000000000 14.0305999999999997
  4.4364200000000000  6.9522800000000000 14.0305999999999997
  6.9715100000000003  6.9522800000000000 14.0305999999999997
  6.9715100000000003  1.0977300000000001 16.1005000000000003
  9.5066000000000006  1.0977300000000001 16.1005000000000003
  1.9013199999999999  1.0977300000000001 16.1005000000000003
  4.4364200000000000  1.0977300000000001 16.1005000000000003
  8.2390600000000003  3.2931800000000000 16.1005000000000003
  0.6337739999999999  3.2931800000000000 16.1005000000000003
  3.1688700000000001  3.2931800000000000 16.1005000000000003
  5.7039600000000004  3.2931800000000000 16.1005000000000003
  9.5066000000000006  5.4886400000000002 16.1005000000000003
  1.9013199999999999  5.4886400000000002 16.1005000000000003
  4.4364200000000000  5.4886400000000002 16.1005000000000003
  6.9715100000000003  5.4886400000000002 16.1005000000000003
  0.6337739999999999  7.6840999999999999 16.1005000000000003
  3.1688700000000001  7.6840999999999999 16.1005000000000003
  5.7039600000000004  7.6840999999999999 16.1005000000000003
  8.2390600000000003  7.6840999999999999 16.1005000000000003
  5.7811399999999997  1.7512700000000001 18.1371000000000002
  8.2703100000000003  1.8227899999999999 18.1052000000000000
  0.6879550000000000  1.8446400000000001 18.1053999999999995
  3.2929599999999999  1.7775900000000000 18.2056000000000004
  7.0393900000000000  3.9788600000000001 18.2151999999999994
  9.4955700000000007  4.0796700000000001 18.1383000000000010
  1.9398000000000000  3.9391300000000000 18.1612000000000009
  4.5302899999999999  4.0178000000000003 18.0422000000000011
  8.2676300000000005  6.2597300000000002 18.1811000000000007
  0.5544140000000000  6.2122799999999998 18.1485999999999983
  3.2455699999999998  6.2474699999999999 18.1279000000000003
  5.7832100000000004  6.1611900000000004 18.1146999999999991
  9.4996200000000002  8.3837700000000002 18.0989000000000004
  1.8842900000000000  8.4408200000000004 18.1212000000000018
  4.4206700000000003  8.4103300000000001 18.1143000000000001
  6.9630299999999998  8.4262400000000000 18.1686000000000014
  5.7512999999999996  0.2147440000000000 20.1660000000000004
  8.2126500000000000  0.2658930000000000 20.2992999999999988
  0.4720350000000000  0.2437100000000000 20.1725999999999992
  3.0921300000000000  0.3291780000000000 20.1975000000000016
  6.9523799999999998  2.4780000000000002 20.2330000000000005
  9.4694500000000001  2.5683600000000002 20.1859000000000002
  1.9564800000000000  2.4476499999999999 20.1248000000000005
  4.4793900000000004  2.3865900000000000 20.1707999999999998
  8.2590299999999992  4.6546399999999997 20.2186999999999983
  0.6879459999999999  4.7634200000000000 20.1399000000000008
  3.2094800000000001  4.6755100000000001 20.0865000000000009
  5.6886000000000001  4.8112199999999996 20.0688999999999993
  9.4338599999999992  6.8999199999999998 20.1520000000000010
  1.8856500000000000  6.8577700000000004 20.0230999999999995
  4.4597400000000000  6.8766600000000002 20.1749000000000009
  6.9477099999999998  6.8208500000000001 20.2927000000000000
  7.7717900000000002  7.3364200000000004 23.2415999999999983
  6.8361299999999998  7.5859699999999997 23.0961999999999996
  8.1684500000000000  8.2005999999999997 22.9835999999999991
  8.9785599999999999  2.6455700000000002  1.3005700000000000
  8.1501300000000008  3.1767900000000000  1.3924700000000001
  9.8221399999999992  3.1955700000000000  1.3968100000000001
  0.6659220000000000  0.4381250000000000  1.3714299999999999
  2.5713200000000001  1.9188900000000000 23.5215999999999994
 10.1134000000000004  0.9328900000000000  0.8973060000000000
  0.7811930000000000  2.0055800000000001 24.7397999999999989
 10.0775000000000006  1.9046900000000000 24.3040999999999983
  0.7372590000000000  2.8799000000000001 25.2166999999999994
  1.5042100000000000  8.4254999999999995 25.4841000000000015
  1.2211200000000000  0.4101980000000000 24.9810000000000016
  1.3996599999999999  7.6836799999999998 24.8683000000000014
  9.7618500000000008  1.9122200000000000 28.8806000000000012
  4.8416399999999999  6.8063099999999999  1.4551000000000001
 10.0672999999999995  1.0665700000000000 28.4603000000000002
  9.1396099999999993  4.9447599999999996 23.6144999999999996
  6.7540199999999997  6.7158400000000000  2.9437600000000002
  8.8210800000000003  5.8101500000000001 23.3840000000000003
  3.9822099999999998  7.1272500000000001  1.0934999999999999
  8.2658500000000004  2.8363000000000000 28.3442000000000007
  4.2686400000000004  7.8185300000000000  0.5003560000000000
  5.1295299999999999  3.3067500000000001 29.8886000000000003
  5.7539499999999997  3.0414699999999999 29.2304999999999993
  5.3870899999999997  1.6590800000000001 24.7576999999999998
  6.3548799999999996  1.5330800000000000 24.8622000000000014
  6.6523399999999997  2.4793900000000000 25.0380000000000003
  6.6187500000000004  2.8792800000000001  7.0022300000000000
  7.5824100000000003  3.5016500000000002 28.1919000000000004
  7.5920699999999997  3.6994899999999999 27.2328000000000010
  4.6436500000000001  8.6299899999999994 23.3525999999999989
  7.5623500000000003  0.3265450000000000  0.3808940000000000
  6.9932499999999997  8.8475500000000000 29.7679000000000009
  8.0962200000000006  1.0802799999999999  0.1245910000000000
  6.0844899999999997  5.9995399999999997  2.7860900000000002
  0.3357520000000000  2.5789100000000000 29.0188999999999986
  5.5693400000000004  5.7834899999999996  3.6455799999999998
  9.6110399999999991  4.4603999999999999  6.4846500000000002
  9.6905000000000001  5.3389800000000003  5.9208800000000004
  9.8194800000000004  4.6898799999999996  7.4367500000000000
  3.4952000000000001  2.0708199999999999 23.3183000000000007
  8.9478100000000005  4.4447000000000001 22.7103999999999999
  3.5508600000000001  1.8149700000000000 22.3983999999999988
  3.6953000000000000  3.3506999999999998 25.8267999999999986
  4.0021599999999999  3.9170300000000000 26.5174999999999983
  2.0231100000000000  4.9348900000000002  3.7852299999999999
  2.5808300000000002  5.6935300000000000  3.9360499999999998
  2.0750400000000000  4.3709300000000004  4.5793699999999999
  3.3732000000000002  4.8373200000000001 22.8172999999999995
  4.1385399999999999  5.0732900000000001 22.2537999999999982
  3.4548500000000000  3.9327899999999998 23.1572999999999993
  1.6543600000000001  6.7085200000000000 23.4603000000000002
  2.1274099999999998  5.9633300000000000 23.1036000000000001
  1.0304500000000001  6.9851999999999999 22.7557000000000009
  2.8648300000000000  3.6896499999999999 25.4034000000000013
  5.9729999999999999  2.5753599999999999  7.7418199999999997
  6.3619300000000001  1.9162300000000001  8.3733000000000004
  7.7500999999999998  3.1901899999999999  4.6778599999999999
  7.3481699999999996  3.8364199999999999  5.2617700000000003
  8.1008800000000001  4.0691300000000004  5.9238200000000001
  5.6390300000000000  3.4461400000000002  0.5680730000000001
  5.9456800000000003  0.5671400000000000  2.6036400000000000
  6.7162199999999999  0.8682190000000000  3.1764299999999999
  6.4141399999999997  0.5435330000000000  1.7753500000000000
  5.1384499999999997  7.7711499999999996 23.1163999999999987
  4.9683000000000002  7.6441800000000004 22.1833999999999989
  5.1925600000000003  7.9042800000000000 28.7637999999999998
  5.8180300000000003  8.2986299999999993 28.1514999999999986
  6.7254699999999996  0.3362040000000000 26.0113999999999983
  6.9289199999999997  8.3743900000000000 26.6709999999999994
  5.5051899999999998  8.4688199999999991  6.1548600000000002
  7.8708700000000000  8.1729000000000003 26.8521000000000001
  4.6502299999999996  8.2465100000000007  5.8869800000000003
  4.6391700000000000  8.6430799999999994 28.9431000000000012
  4.1988200000000004  0.3452960000000000  5.9031099999999999
  5.8899200000000000  6.1042399999999999 26.0305000000000000
  5.1827300000000003  6.3537600000000003 25.4736000000000011
  6.2959199999999997  7.0114900000000002 26.3399999999999999
  7.8670499999999999  7.1613600000000002  6.9472199999999997
  8.0944000000000003  6.2450500000000000  6.8865600000000002
  8.8855100000000000  7.2176400000000003  2.4649999999999999
  8.3314299999999992  7.6164500000000004  3.1411799999999999
  8.0945300000000007  4.4957500000000001 24.8250999999999991
  7.2896099999999997  4.0995100000000004 25.2923000000000009
  7.7023099999999998  7.2850799999999998  7.9373199999999997
  6.6639099999999996  4.8028599999999999 25.6060000000000016
  8.2703399999999991  1.8951100000000001  3.8786399999999999
  8.7865300000000008  1.3955100000000000  4.4858799999999999
  8.8293400000000002  2.1331400000000000  3.1147900000000002
  4.4146299999999998  4.6756599999999997 28.9182999999999986
  4.0799200000000004  5.1582999999999997 28.1416000000000004
  9.4436599999999995  1.2089799999999999  6.7875300000000003
  4.7614200000000002  5.7503099999999998 27.8588999999999984
  9.4539600000000004  0.4441470000000000  6.2211200000000000
  8.9054500000000001  8.6149400000000007  6.7837500000000004
  6.5400799999999997  4.7077099999999996  2.3834900000000001
  0.2665040000000000  6.7802800000000003  0.7637900000000000
  0.3941190000000000  7.7416700000000001  0.8978990000000000
  1.0915800000000000  6.3249000000000004  0.9453960000000000
  0.1392960000000000  6.7947899999999999  5.0808999999999997
  1.0610999999999999  6.6690100000000001  4.8076699999999999
  3.6255299999999999  1.7821300000000000 29.8468000000000018
  2.9564499999999998  1.1181200000000000 29.6546999999999983
  4.0185700000000004  1.5894400000000000  2.7037300000000002
  2.8900399999999999  1.1290800000000001 28.6879999999999988
  3.2505400000000000  2.1216699999999999  2.8363000000000000
  0.2422050000000000  7.5049900000000003  5.7244099999999998
  2.9193199999999999  1.9357100000000000  3.6850800000000001
  3.3790200000000001  0.9537230000000000 27.0200999999999993
  3.6139000000000001  1.7917000000000001 26.5322999999999993
  2.7314200000000000  0.4981730000000000 26.4549999999999983
  3.4172600000000002  1.7645200000000001  6.9740399999999996
  8.7726000000000006  7.2218200000000001  3.9454300000000000
  3.7095699999999998  7.6020099999999999  2.9340700000000002
  3.3768899999999999  7.4364999999999997  3.8474400000000002
  8.9250600000000002  6.2965400000000002 -0.2808650000000000
  4.0876700000000001  7.7928199999999999  4.4296499999999996
  8.1561699999999995  6.2900700000000001 29.3087000000000018
  4.2343400000000004  2.2727200000000001  7.2245799999999996
  8.2001399999999993  5.3987499999999997 28.9485999999999990
  1.5205000000000000  2.7558400000000001  5.1835599999999999
  0.8050890000000001  3.3064200000000001  5.5621099999999997
  1.9417800000000001  2.3601000000000001  5.9512499999999999
  1.4503800000000000  0.8076759999999999  0.9340309999999999
  1.9092499999999999  3.0608100000000000  1.6388199999999999
  1.3396399999999999  3.8653000000000000  1.4769000000000001
  0.1585090000000000  8.1861400000000000 26.7520999999999987
  1.4368799999999999  4.2739200000000004  2.3759500000000000
  9.6848899999999993  8.2234999999999996 27.4515999999999991
  9.6115999999999993  7.3725300000000002 27.8675999999999995
  6.6507800000000001  3.7804000000000002  1.9785100000000000
  6.2170899999999998  3.2263899999999999  2.6664599999999998
  3.0681200000000000  1.3858200000000001  7.7242400000000000
  8.7188900000000000  1.1013700000000000 23.1770999999999994
  8.9627599999999994  1.6151899999999999 22.4012999999999991
  7.8627099999999999  1.4890200000000000 23.5016999999999996
  1.3332100000000000  5.0620300000000000 28.3798999999999992
  1.1452100000000001  5.8037000000000001 29.0704999999999991
  2.2425600000000001  5.2006399999999999 28.1661000000000001
  2.9282900000000001  6.2356800000000003  6.5997100000000000
  2.7986800000000001  6.1364799999999997  7.5785999999999998
  3.5137100000000001  6.9723400000000000  6.4869899999999996
  1.1870200000000000  4.6594499999999996 25.5470000000000006
  0.9639540000000000  4.8686600000000002 26.4911999999999992
  0.5720210000000000  4.9981499999999999 24.8787999999999982
  5.0738500000000002  4.9214700000000002  4.9112600000000004
  5.7587200000000003  4.3489000000000004  5.2398100000000003
  4.3530800000000003  5.0712000000000002  5.5416600000000003
