Cu O  H  O  H  O  H  O  H  O  H  O  H  O  H  O  H  O  H  O  H  O  H  O  H  O  H  O  H  O  H  O  H  O  H  O  H  O  H  O  H  O  H  O  H  O  H  O  H  O  H  O  H  O  H  O  H  O  H  O  H  O  H  O  H  O  H  O  H  O  H  O  H  O  H  O  H  O  H  O  H  O  H  O  H  O  H  O  H  O  H  O  H  O  H  O  H  O  H  O  H 
 1.0000000000000000
    10.1403771778044529    0.0000000000000000    0.0000000000000000
     0.0000000000000000    8.7818242399346058    0.0000000000000000
     0.0000000000000000    0.0000000000000000   30.1311271579000000
 Cu  O   H   O   H   O   H   O   H   O   H   O   H   O   H   O   H   O   H   O   H   O   H   O   H   O   H   O   H   O   H   O   H   O   H   O   H   O   H   O   H   O   H   O   H   O   H   O   H   O   H   O   H   O   H   O   H   O   H   O   H   O   H   O   H   O   H   O   H   O   H   O   H   O   H   O   H   O   H   O   H   O   H   O   H   O   H   O   H   O   H   O   H   O   H   O   H   O   H   O   H  
  96   1   2   1   2   1   2   1   2   1   2   1   2   1   2   1   2   1   2   1   2   1   2   1   2   1   2   1   2   1   2   1   1   1   2   1   2   1   3   1   2   1   2   1   2   1   1   1   2   1   2   1   2   1   2   1   2   1   1   1   2   1   3   1   2   1   2   1   2   1   2   1   2   1   2   1   2   1   2   1   2   1   2   1   4   1   2   1   1   1   2   1   2   1   2   1   2   1   2   1   2
Cartesian
  7.1957700000000004  0.9489230000000000  9.9568399999999997
  9.5340399999999992  1.0147900000000001  9.9070999999999998
  1.9170199999999999  1.1327300000000000  9.9163099999999993
  4.5362600000000004  1.0135099999999999 10.0230999999999995
  8.1991800000000001  3.0772400000000002 10.1021000000000001
  0.4862990000000000  3.2494000000000001  9.8626400000000007
  3.0722800000000001  3.3222800000000001  9.9672499999999999
  5.5498700000000003  3.2534900000000002  9.6827500000000004
  9.4629399999999997  5.3594600000000003 10.0574999999999992
  1.8898500000000000  5.4592000000000001  9.8679600000000001
  4.3472799999999996  5.4198899999999997  9.8684999999999992
  6.8837500000000000  5.5553900000000001  9.9271200000000004
  0.4905280000000000  7.5782900000000000  9.9204299999999996
  3.1291500000000001  7.6094999999999997 10.0029000000000003
  5.7538600000000004  7.6857699999999998  9.9878699999999991
  8.1908700000000003  7.5626199999999999  9.8314500000000002
  5.7894699999999997  1.7824300000000000 11.9316999999999993
  8.3233899999999998  1.7255499999999999 12.0318000000000005
  0.6178360000000001  1.8714700000000000 11.8954000000000004
  3.2227600000000001  1.7401899999999999 12.0737000000000005
  7.0533799999999998  3.8939699999999999 11.8497000000000003
  9.4351900000000004  3.9994000000000001 11.9769000000000005
  1.7946700000000000  4.0217499999999999 11.8869000000000007
  4.3787099999999999  4.0072799999999997 11.8978999999999999
  8.2890300000000003  6.2341899999999999 11.9143000000000008
  0.6667490000000000  6.1699700000000002 12.1263000000000005
  3.0660300000000000  6.2699800000000003 12.0610999999999997
  5.7857399999999997  6.1293300000000004 12.0282999999999998
  9.5509400000000007  8.2873099999999997 12.0570000000000004
  1.8873599999999999  8.4086900000000000 12.0145000000000000
  4.4635699999999998  8.3474599999999999 12.0646000000000004
  7.0415400000000004  8.3991600000000002 12.0533999999999999
  5.7039600000000004  0.3659090000000000 14.0305999999999997
  8.2390600000000003  0.3659090000000000 14.0305999999999997
  0.6337739999999999  0.3659090000000000 14.0305999999999997
  3.1688700000000001  0.3659090000000000 14.0305999999999997
  6.9715100000000003  2.5613700000000001 14.0305999999999997
  9.5066000000000006  2.5613700000000001 14.0305999999999997
  1.9013199999999999  2.5613700000000001 14.0305999999999997
  4.4364200000000000  2.5613700000000001 14.0305999999999997
  8.2390600000000003  4.7568200000000003 14.0305999999999997
  0.6337739999999999  4.7568200000000003 14.0305999999999997
  3.1688700000000001  4.7568200000000003 14.0305999999999997
  5.7039600000000004  4.7568200000000003 14.0305999999999997
  9.5066000000000006  6.9522800000000000 14.0305999999999997
  1.9013199999999999  6.9522800000000000 14.0305999999999997
  4.4364200000000000  6.9522800000000000 14.0305999999999997
  6.9715100000000003  6.9522800000000000 14.0305999999999997
  6.9715100000000003  1.0977300000000001 16.1005000000000003
  9.5066000000000006  1.0977300000000001 16.1005000000000003
  1.9013199999999999  1.0977300000000001 16.1005000000000003
  4.4364200000000000  1.0977300000000001 16.1005000000000003
  8.2390600000000003  3.2931800000000000 16.1005000000000003
  0.6337739999999999  3.2931800000000000 16.1005000000000003
  3.1688700000000001  3.2931800000000000 16.1005000000000003
  5.7039600000000004  3.2931800000000000 16.1005000000000003
  9.5066000000000006  5.4886400000000002 16.1005000000000003
  1.9013199999999999  5.4886400000000002 16.1005000000000003
  4.4364200000000000  5.4886400000000002 16.1005000000000003
  6.9715100000000003  5.4886400000000002 16.1005000000000003
  0.6337739999999999  7.6840999999999999 16.1005000000000003
  3.1688700000000001  7.6840999999999999 16.1005000000000003
  5.7039600000000004  7.6840999999999999 16.1005000000000003
  8.2390600000000003  7.6840999999999999 16.1005000000000003
  5.7382600000000004  1.7766500000000001 18.0828999999999986
  8.1374999999999993  1.7597499999999999 18.2058000000000000
  0.6599510000000000  1.8065400000000000 18.3294999999999995
  3.2609599999999999  1.7664400000000000 18.1925999999999988
  6.9888599999999999  4.0138800000000003 18.2149000000000001
  9.5009999999999994  3.9424299999999999 18.2129000000000012
  1.7356799999999999  3.9731800000000002 18.1746000000000016
  4.4689500000000004  3.9928200000000000 18.0691999999999986
  8.2919099999999997  6.1113099999999996 18.1243000000000016
  0.7009540000000000  6.2047400000000001 18.2145000000000010
  3.2402299999999999  6.2705200000000003 18.1221999999999994
  5.7028900000000000  6.0998900000000003 18.2683000000000000
  9.4593100000000003  8.3458900000000007 18.1702000000000012
  1.9623299999999999  8.3466799999999992 18.2153999999999989
  4.4708899999999998  8.4673200000000008 18.1047000000000011
  6.9399800000000003  8.3933999999999997 18.0159999999999982
  5.7227100000000002  0.3460900000000000 20.2584000000000017
  8.3077600000000000  0.3143060000000000 20.2816000000000010
  0.6921740000000000  0.2624880000000000 20.2372000000000014
  3.2048800000000002  0.2698020000000000 20.3063000000000002
  6.8910700000000000  2.5896800000000000 20.2957000000000001
  9.4420699999999993  2.5388700000000002 20.1302999999999983
  1.9150700000000001  2.4922499999999999 20.2659999999999982
  4.4607099999999997  2.4542000000000002 20.0507999999999988
  8.1760099999999998  4.7561499999999999 20.2831000000000010
  0.6385630000000000  4.7332200000000002 20.2565999999999988
  3.1557499999999998  4.8124599999999997 20.1768000000000001
  5.6157399999999997  4.7221900000000003 20.5116000000000014
  9.4683600000000006  6.8659800000000004 20.2753000000000014
  1.9097900000000001  6.8855800000000000 20.1556999999999995
  4.5841399999999997  6.9779000000000000 20.1778000000000013
  7.0258900000000004  6.9934200000000004 19.9448000000000008
  6.6768900000000002  8.2768200000000007  3.7003800000000000
  6.7129300000000001  7.8978799999999998  4.6454300000000002
  7.1304999999999996  0.3646850000000000  3.7041599999999999
  1.1012400000000000  0.1217000000000000  0.7923430000000000
  0.9771050000000000  8.4443800000000007  1.5865700000000000
  0.2660240000000000  0.3952240000000000  0.4714360000000000
  1.8702000000000001  1.4807999999999999  6.9103599999999998
  7.9831599999999998  8.3922899999999991  0.4259230000000000
  2.6276500000000000  1.3554400000000000  7.5522799999999997
  6.0661500000000004  4.9628199999999998  3.4460099999999998
  6.9371400000000003  4.8649899999999997  3.7737200000000000
  5.6359100000000000  5.5956700000000001  4.0379600000000000
  9.4085300000000007  8.5604499999999994 27.3794000000000004
  9.0110100000000006  8.6494199999999992 28.2576000000000001
  8.7247299999999992  8.1566100000000006 26.8257000000000012
  2.5284900000000001  6.9530599999999998 28.1113999999999997
  0.9637240000000000  5.6943400000000004 24.0020999999999987
  2.6160500000000000  7.7338399999999998 27.5001999999999995
  2.0129199999999998  1.4954300000000000 24.3462999999999994
  2.0301399999999998  1.0087500000000000 26.0957000000000008
  2.3364300000000000  2.4143300000000001 24.2759999999999998
  0.7109170000000000  6.4909600000000003 24.4933000000000014
  8.3836999999999993  2.9582400000000000  3.3082799999999999
  1.5327500000000001  7.1093200000000003 24.3094999999999999
  6.5491999999999999  7.1219700000000001 26.7653999999999996
  7.2357300000000002  7.3261000000000003 26.0590000000000011
  1.7059800000000001  3.8637299999999999 22.6833999999999989
  2.1812600000000000  4.3324999999999996 23.4375999999999998
  3.0703800000000001  4.5389299999999997 22.9838999999999984
  2.9837899999999999  0.6923550000000001 29.8485000000000014
  8.0753299999999992  2.0844100000000001  2.9685000000000001
  8.7577400000000001  1.7347100000000000  2.3799899999999998
  7.8020800000000001  3.5630000000000002  0.5078730000000000
  8.6735500000000005  7.9663399999999998 24.2148000000000003
  8.7966899999999999  8.8607499999999995 23.8130999999999986
  9.5593500000000002  7.6123799999999999 24.3944000000000010
  1.7540600000000000  0.5617040000000000 26.9252000000000002
  2.8523100000000001  6.2177600000000002 27.5884000000000000
  0.8459179999999999  0.2385300000000000 26.7844000000000015
  6.1755100000000001  7.2552199999999996 23.3892999999999986
  6.9737799999999996  7.6862100000000000 23.8459000000000003
  6.3303000000000003  7.4918199999999997 22.4553000000000011
  8.6673899999999993  0.2278380000000000  0.0356737000000000
  2.7844500000000001  0.8519580000000000 24.2390000000000008
  8.3758700000000008  1.1459600000000001 -0.0703188000000000
  5.1412100000000001  1.7997799999999999 23.1855000000000011
  5.7891000000000004  1.4786100000000000 22.5665000000000013
  4.6006400000000003  0.0418481000000000  7.0377599999999996
  4.9753900000000000  0.7836500000000000  7.5098599999999998
  4.5118299999999998  8.1696700000000000  7.7769700000000004
  4.2025100000000002  4.0213999999999999 29.8820000000000014
  3.7688299999999999  3.2393700000000001 29.5198000000000000
  4.4232899999999997  3.7414499999999999  0.6564960000000000
  1.6069300000000000  6.8015999999999996  6.6271399999999998
  1.7145699999999999  5.8230700000000004  6.7285700000000004
  1.9878800000000001  7.1530399999999998  7.4079300000000003
  4.3280300000000000  1.8375500000000000 22.6056999999999988
  3.4361500000000000  1.1017900000000000 29.1061000000000014
  2.9169800000000001  0.9053120000000000 28.3354999999999997
  8.5400899999999993  4.6743100000000002  7.7545000000000002
  8.2678600000000007  4.9058299999999999  6.8769099999999996
  7.6985900000000003  5.7202000000000002  7.0026599999999997
  6.3622399999999999  7.9203000000000001 27.3714000000000013
  1.2336700000000000  4.1849400000000001  6.1321599999999998
  0.2797950000000000  3.9941499999999999  6.3517999999999999
  1.6977100000000001  3.3563800000000001  6.2893800000000004
  7.3194299999999997  2.6639200000000001  0.3329210000000000
  7.0041700000000002  2.4534600000000002  1.1948099999999999
  0.5409270000000000  2.8803899999999998 29.2086000000000006
  1.1941800000000000  2.5770499999999998 28.6201000000000008
  6.1037699999999999  7.2068099999999999  0.7059420000000000
  6.9554600000000004  7.2343200000000003  1.1779100000000000
  1.0114399999999999  4.8474500000000003 25.9447000000000010
  6.9610700000000003  7.5397400000000001  2.1245900000000000
  1.7092400000000001  4.5128199999999996 26.5410000000000004
  9.8295800000000000  2.7357900000000002 28.6191999999999993
  2.4530200000000000  4.2760899999999999 25.9391999999999996
  9.7383500000000005  2.3018999999999998 23.3499000000000017
  0.3895360000000000  1.8316699999999999 23.6478999999999999
  9.6695499999999992  2.2746300000000002 22.3981999999999992
  9.4846800000000009  2.0743900000000002  6.6240699999999997
  8.8011099999999995  1.8260900000000000  7.3133800000000004
  5.5143899999999997  4.3121600000000004 28.7942999999999998
  6.0103799999999996  4.4386099999999997 27.9568000000000012
  3.5790299999999999  7.1594600000000002 29.8060000000000009
  4.2028400000000001  6.9360700000000000  0.4190250000000000
  0.1659040000000000  1.6414100000000000  6.8836399999999998
  4.1796499999999996  5.9912999999999998  0.2808640000000000
  4.7949500000000000  4.8816899999999999 22.5857999999999990
  5.1027500000000003  4.0947399999999998 23.0396000000000001
  5.1995699999999996  5.6809900000000004 22.9635999999999996
  4.1219299999999999  7.9241700000000002 23.4070999999999998
  3.1858100000000000  7.8179200000000000 23.3948999999999998
  2.9418199999999999  1.9811000000000001  3.4363299999999999
  2.9239000000000002  7.4480199999999996 22.4853999999999985
  2.1313399999999998  1.5615399999999999  3.8257699999999999
  2.2368899999999998  0.6348740000000000  3.5701000000000001
  8.1061499999999995  2.9157899999999999 24.5254000000000012
  5.0837899999999996  0.9996590000000000 25.8311999999999991
  5.3658400000000004  0.6476210000000000 26.7272999999999996
  5.4108200000000002  0.4745110000000000 25.0938000000000017
  0.7078670000000000  2.9658699999999998  1.8933300000000000
  1.2368699999999999  2.2274200000000000  2.2402700000000002
  0.9383650000000000  6.7295499999999997  3.2188900000000000
  0.9593620000000000  7.6689900000000000  3.0447099999999998
  9.7672899999999991  4.2160099999999998  4.1087100000000003
  0.4441600000000000  7.9740099999999998  3.7639000000000000
  8.8938299999999995  4.5451499999999996  3.7793600000000001
  1.0701499999999999  3.0197300000000000  0.9656350000000000
  9.0593100000000000  4.6941800000000002  2.8346800000000001
  9.6872299999999996  8.2706599999999995  5.5791100000000000
  0.2876870000000000  7.8148400000000002  6.0320499999999999
  9.8316599999999994  0.4640820000000000  5.6719799999999996
  0.1359490000000000  5.7417400000000001 29.2850000000000001
  6.2224800000000000  5.3574400000000004 27.9107999999999983
  4.8872900000000001  8.5253899999999998  2.8507099999999999
  4.1712699999999998  0.0779717000000000  2.3086300000000000
  6.3757900000000003  7.9447400000000004  6.8747600000000002
  3.9744299999999999  8.1827000000000005  1.6556400000000000
  7.0191999999999997  7.5056700000000003  6.3078200000000004
  0.4753930000000000  4.8983699999999999 28.9477000000000011
  7.8284900000000004  8.0222899999999999  6.3356000000000003
  8.5721299999999996  4.9508500000000000  0.9302880000000000
  9.2525999999999993  5.3754299999999997  0.2487980000000000
  7.8260800000000001  5.5694400000000002  1.0795100000000000
  2.1551499999999999  1.1203500000000000  6.0673599999999999
  5.0734100000000000  3.3625300000000000  2.9272300000000002
  4.4433600000000002  2.9058500000000000  2.3358599999999998
  5.0579400000000003  4.1994800000000003 26.4534999999999982
  4.7119200000000001  1.9997499999999999  2.3289200000000001
  4.4313599999999997  4.1121400000000001 25.7268000000000008
  4.3577000000000004  3.1567200000000000 25.6183000000000014
  7.4853300000000003  2.7482000000000002 25.2875000000000014
  6.6416199999999996  2.3970600000000002 24.8841999999999999
  0.6663320000000000  6.3688799999999999 28.7444999999999986
  3.8773300000000002  6.2665199999999999  4.8515199999999998
  4.0682099999999997  6.9650299999999996  5.4887300000000003
  3.0527199999999999  6.3700299999999999  4.3866600000000000
  8.1991399999999999  2.7447200000000000 27.7612999999999985
  8.0542300000000004  2.6518600000000001 26.8068999999999988
  7.6052799999999996  3.4990199999999998 27.9908999999999999
  5.8404800000000003  3.0145000000000000  6.5143300000000002
  6.7650800000000002  3.3057799999999999  6.5230600000000001
  5.2973699999999999  3.8575499999999998  6.7962300000000004
  5.9578499999999996  0.3230520000000000 28.3693999999999988
  5.0894000000000004  0.5768529999999999 28.8150000000000013
  6.4756600000000004  1.0781300000000000 28.5694000000000017
  1.8062700000000000  4.8553499999999996  3.4662400000000000
  1.6240900000000000  4.4329200000000002  4.3357000000000001
  1.4096000000000000  4.2555300000000003  2.7833299999999999
