Cu O  H  O  H  O  H  O  H  O  H  O  H  O  H  O  H  O  H  O  H  O  H  O  H  O  H  O  H  O  H  O  H  O  H  O  H  O  H  O  H  O  H  O  H  O  H  O  H  O  H  O  H  O  H  O  H  O  H  O  H  O  H  O  H  O  H  O  H  O  H  O  H  O  H  O  H  O  H  O  H  O  H  O  H  O  H  O  H  O  H  O  H  O  H  O  H  O  H  O  H 
 1.0000000000000000
    10.1403771778044529    0.0000000000000000    0.0000000000000000
     0.0000000000000000    8.7818242399346058    0.0000000000000000
     0.0000000000000000    0.0000000000000000   30.1311271579000000
 Cu  O   H   O   H   O   H   O   H   O   H   O   H   O   H   O   H   O   H   O   H   O   H   O   H   O   H   O   H   O   H   O   H   O   H   O   H   O   H   O   H   O   H   O   H   O   H   O   H   O   H   O   H   O   H   O   H   O   H   O   H   O   H   O   H   O   H   O   H   O   H   O   H   O   H   O   H   O   H   O   H   O   H   O   H   O   H   O   H   O   H   O   H   O   H   O   H   O   H   O   H  
  96   1   2   1   2   1   2   1   2   1   2   1   2   1   2   1   2   1   2   1   2   1   2   1   2   1   2   1   2   1   2   1   1   1   2   1   2   1   3   1   2   1   2   1   2   1   1   1   2   1   2   1   2   1   2   1   2   1   1   1   2   1   3   1   2   1   2   1   2   1   2   1   2   1   2   1   2   1   2   1   2   1   2   1   4   1   2   1   1   1   2   1   2   1   2   1   2   1   2   1   2
Cartesian
  6.9288100000000004  1.1979000000000000  9.9798100000000005
  9.4010300000000004  0.9704990000000000  9.9053000000000004
  1.8210500000000001  0.9661230000000000  9.9757300000000004
  4.3198600000000003  0.9503800000000000  9.9029900000000008
  8.2495999999999992  3.3887200000000002  9.8761700000000001
  0.5096800000000000  3.1402299999999999  9.7829999999999995
  3.1090300000000002  3.1070600000000002  9.9696200000000008
  5.6286199999999997  3.2595999999999998  9.9500899999999994
  9.6419300000000003  5.4018199999999998  9.8293300000000006
  1.9042800000000000  5.4173999999999998  9.7083999999999993
  4.4758300000000002  5.4418100000000003  9.7863299999999995
  6.9348799999999997  5.4118500000000003  9.9095399999999998
  0.5554519999999999  7.6340899999999996  9.9104299999999999
  3.1983700000000002  7.5870699999999998  9.9437800000000003
  5.5891000000000002  7.5871500000000003  9.7076600000000006
  8.2671700000000001  7.5712900000000003 10.0381999999999998
  5.6709199999999997  1.8158500000000000 12.0035000000000007
  8.0945000000000000  1.8697200000000000 11.9908000000000001
  0.6311860000000000  1.8613999999999999 11.8378999999999994
  3.2327499999999998  1.7172700000000001 12.0037000000000003
  6.8234899999999996  3.9577900000000001 11.9875000000000007
  9.4721799999999998  3.8991799999999999 11.9215999999999998
  1.8240600000000000  3.9776799999999999 11.7847000000000008
  4.3446199999999999  3.9218400000000000 11.8816000000000006
  8.2813199999999991  6.0180400000000001 11.9179999999999993
  0.6724650000000000  6.2950600000000003 11.8732000000000006
  3.3434900000000001  6.0124800000000000 11.8890999999999991
  5.6494299999999997  6.2249900000000000 11.9626999999999999
  9.6183599999999991  8.5088000000000008 11.9817000000000000
  1.9375400000000000  8.4362999999999992 11.9366000000000003
  4.4934799999999999  8.3767300000000002 12.0233000000000008
  7.1079400000000001  8.1902100000000004 12.0205000000000002
  5.7039600000000004  0.3659090000000000 14.0305999999999997
  8.2390600000000003  0.3659090000000000 14.0305999999999997
  0.6337739999999999  0.3659090000000000 14.0305999999999997
  3.1688700000000001  0.3659090000000000 14.0305999999999997
  6.9715100000000003  2.5613700000000001 14.0305999999999997
  9.5066000000000006  2.5613700000000001 14.0305999999999997
  1.9013199999999999  2.5613700000000001 14.0305999999999997
  4.4364200000000000  2.5613700000000001 14.0305999999999997
  8.2390600000000003  4.7568200000000003 14.0305999999999997
  0.6337739999999999  4.7568200000000003 14.0305999999999997
  3.1688700000000001  4.7568200000000003 14.0305999999999997
  5.7039600000000004  4.7568200000000003 14.0305999999999997
  9.5066000000000006  6.9522800000000000 14.0305999999999997
  1.9013199999999999  6.9522800000000000 14.0305999999999997
  4.4364200000000000  6.9522800000000000 14.0305999999999997
  6.9715100000000003  6.9522800000000000 14.0305999999999997
  6.9715100000000003  1.0977300000000001 16.1005000000000003
  9.5066000000000006  1.0977300000000001 16.1005000000000003
  1.9013199999999999  1.0977300000000001 16.1005000000000003
  4.4364200000000000  1.0977300000000001 16.1005000000000003
  8.2390600000000003  3.2931800000000000 16.1005000000000003
  0.6337739999999999  3.2931800000000000 16.1005000000000003
  3.1688700000000001  3.2931800000000000 16.1005000000000003
  5.7039600000000004  3.2931800000000000 16.1005000000000003
  9.5066000000000006  5.4886400000000002 16.1005000000000003
  1.9013199999999999  5.4886400000000002 16.1005000000000003
  4.4364200000000000  5.4886400000000002 16.1005000000000003
  6.9715100000000003  5.4886400000000002 16.1005000000000003
  0.6337739999999999  7.6840999999999999 16.1005000000000003
  3.1688700000000001  7.6840999999999999 16.1005000000000003
  5.7039600000000004  7.6840999999999999 16.1005000000000003
  8.2390600000000003  7.6840999999999999 16.1005000000000003
  5.6516900000000003  1.8788100000000001 18.0886999999999993
  8.2163599999999999  1.8929800000000001 18.1025999999999989
  0.5939000000000000  1.8181799999999999 18.1356999999999999
  3.0852599999999999  1.8249000000000000 18.2452000000000005
  6.8907299999999996  4.2853599999999998 18.1141000000000005
  9.4538600000000006  4.0806600000000000 18.2566999999999986
  1.8468500000000001  4.0023000000000000 18.1635999999999989
  4.3249300000000002  4.0887799999999999 18.1411000000000016
  8.2392699999999994  6.2144100000000000 18.0616999999999983
  0.5219990000000000  6.2530299999999999 18.2399999999999984
  3.1726399999999999  6.2475100000000001 18.2128000000000014
  5.7104600000000003  6.3362499999999997 18.2810999999999986
  9.4329499999999999  8.3586100000000005 18.0260999999999996
  1.6976199999999999  8.3359100000000002 18.1890000000000001
  4.3147799999999998  8.3880999999999997 18.2292999999999985
  7.0352399999999999  8.2740100000000005 18.3843999999999994
  5.6970000000000001  0.3619040000000000 20.2784000000000013
  8.1445799999999995  0.4860360000000000 20.3058000000000014
  0.5507220000000000  0.3770400000000000 20.1563000000000017
  3.0945700000000000  0.3492740000000000 20.4197999999999986
  6.9044800000000004  2.6349000000000000 20.1650999999999989
  9.4678400000000007  2.7518199999999999 20.3508999999999993
  1.9225600000000000  2.4162599999999999 20.2490999999999985
  4.2975899999999996  2.5254799999999999 20.2769000000000013
  8.1067400000000003  4.7751799999999998 20.2886999999999986
  0.5489530000000000  4.8062300000000002 20.3990000000000009
  3.0635100000000000  4.7640000000000002 20.2703999999999986
  5.6528200000000002  4.6690500000000004 20.2185999999999986
  9.2292699999999996  7.1342100000000004 20.1350000000000016
  1.6913600000000000  7.1103899999999998 20.4874000000000009
  4.2477000000000000  6.9287099999999997 20.3347000000000016
  6.9108799999999997  6.8484999999999996 20.4055999999999997
  2.1161599999999998  7.2960000000000003 27.7697000000000003
  1.9292100000000001  8.1568299999999994 27.2806999999999995
  2.9528900000000000  7.0597399999999997 27.3484000000000016
  0.3511110000000000  7.4720199999999997  3.7092900000000002
  9.6574700000000000  7.8518100000000004  4.0077100000000003
  0.5850649999999999  8.0447199999999999  2.9908899999999998
  8.6087199999999999  4.3398899999999996  2.4538799999999998
  2.0423399999999998  6.8063099999999999 23.3185000000000002
  8.2708600000000008  4.7267599999999996  3.2681499999999999
  4.4417799999999996  1.2326500000000000 23.3841000000000001
  3.5112100000000002  1.4102300000000001 23.2539000000000016
  4.8333700000000004  1.1979200000000001 22.4689000000000014
  0.2855550000000000  5.3974900000000003 27.8319000000000010
  9.8400499999999997  5.3650599999999997 28.5959000000000003
  0.9996280000000000  6.0704799999999999 27.8949999999999996
  1.8872599999999999  0.6518510000000000 26.1137000000000015
  1.9964700000000000  3.3126699999999998 29.5634000000000015
  2.0015600000000000  0.4391950000000000 25.1798000000000002
  3.0927600000000002  5.2770599999999996  5.0058600000000002
  1.1209899999999999  2.3191899999999999  5.3936099999999998
  2.5083600000000001  5.0957900000000000  4.2353399999999999
  2.5693999999999999  4.1477300000000001 29.4414000000000016
  6.2783600000000002  0.0508393000000000 26.8708999999999989
  1.8955599999999999  4.7882499999999997 29.0108999999999995
  1.6248300000000000  1.4614799999999999 23.5451000000000015
  1.1796700000000000  2.3542299999999998 23.6551000000000009
  5.7572299999999998  4.7103000000000002 23.0393000000000008
  4.8814299999999999  5.0222499999999997 23.2486999999999995
  4.2335700000000003  4.5123899999999999 22.7564999999999991
  7.8249800000000000  3.1129500000000001 29.7216999999999985
  6.3867399999999996  8.0177999999999994 27.3537999999999997
  7.2647199999999996  7.6096899999999996 27.1785999999999994
  1.3670199999999999  4.6679100000000000  7.1517400000000002
  2.2805300000000002  1.5235000000000001  6.2114500000000001
  1.8155900000000000  0.6696380000000000  6.3574900000000003
  2.7363900000000001  1.7446699999999999  7.0339900000000002
  0.6867460000000000  2.7082199999999998  4.5855100000000002
  1.3858500000000000  1.4467500000000000 26.2199999999999989
  9.9862400000000004  3.0699399999999999  4.8454800000000002
  1.4797499999999999  1.5872100000000000 30.1978000000000009
  2.3715799999999998  1.4514600000000000 29.7957999999999998
  0.9810690000000000  0.9454920000000000 29.6549000000000014
  1.2949700000000000  6.2577499999999997 22.9812000000000012
  3.8383699999999998  4.6539400000000004  4.8507600000000002
  0.4288670000000000  6.7797799999999997 23.0991000000000000
  8.2491099999999999  8.7633899999999993  4.5830700000000002
  7.8797100000000002  0.8313990000000000  4.3589399999999996
  6.0035100000000003  8.5823199999999993  1.7981400000000001
  6.7180099999999996  0.2341020000000000  2.2385199999999998
  5.5892700000000000  7.9890600000000003  2.4888800000000000
  7.9512000000000000  1.7621500000000001  2.2947899999999999
  8.8576999999999995  1.4820899999999999  2.4621100000000000
  7.9464399999999999  1.6935800000000001  1.2940199999999999
  3.5211999999999999  7.4959800000000003 23.7561000000000000
  4.0121300000000000  6.7092000000000001 23.4347999999999992
  3.8224000000000000  8.3370899999999999 23.4055000000000000
  8.2618600000000004  8.6832999999999991  5.5680500000000004
  7.5327500000000001  2.1929699999999999 29.9542000000000002
  6.5902099999999999  2.2863500000000001 30.0218999999999987
  4.6251899999999999  2.5651600000000001  3.9179700000000000
  4.9394000000000000  3.4330099999999999  3.9034399999999998
  5.0806399999999998  3.6775699999999998  2.9677199999999999
  1.2908999999999999  1.0935999999999999 22.7249000000000017
  1.4974900000000000  5.0774499999999998  2.8217699999999999
  0.9422010000000000  4.3007099999999996  2.6655099999999998
  0.9436730000000000  5.8193700000000002  3.0868899999999999
  1.9336199999999999  5.3819900000000001  7.4744799999999998
  2.6311599999999999  5.4341200000000001  6.8252800000000002
  0.0273012000000000  2.8859400000000002 26.6146999999999991
  0.3001740000000000  3.1872900000000000 25.7307999999999986
  5.2581100000000003  5.2560300000000000  0.8667010000000001
  5.1206399999999999  4.4138500000000001  1.2572399999999999
  9.4280700000000000  7.8847199999999997  7.1354800000000003
  4.2755700000000001  4.2241299999999997  0.8619980000000000
  8.4698499999999992  7.7236799999999999  7.0117099999999999
 -0.0593710000000000  3.7515299999999998 27.0741000000000014
  8.0419099999999997  7.5927400000000000  7.9143800000000004
  6.0153100000000004  6.8856799999999998 30.0061999999999998
  6.0820699999999999  7.5704700000000003  0.5582940000000000
  5.9987700000000004  7.3295899999999996 29.1350000000000016
  5.7945399999999996  5.7934700000000001  6.5139699999999996
  4.9367599999999996  6.3067599999999997  6.6504799999999999
  8.3754100000000005  5.8942100000000002 23.6964000000000006
  8.6527499999999993  6.8070800000000000 23.9018000000000015
  3.6995200000000001  1.4329400000000001 26.4867999999999988
  4.6193799999999996  1.2662599999999999 26.8204999999999991
  6.4154200000000001  6.2549599999999996  7.1278300000000003
  5.0069200000000000  2.1462800000000000 26.8221999999999987
  1.8281799999999999  7.5262099999999998  0.5375710000000000
  2.2188800000000000  6.7146699999999999  0.8781020000000000
  2.0856200000000000  7.5784300000000000 29.7288999999999994
  7.5352699999999997  6.7347999999999999  4.5055100000000001
  7.7916299999999996  5.7860500000000004  4.6340100000000000
  0.1815050000000000  6.3661599999999998  0.2918020000000000
  6.9937699999999996  5.4937699999999996  5.1604500000000000
  9.5190000000000001  5.8891400000000003  0.0765466000000000
  9.2791599999999992  5.2519299999999998  0.7933680000000000
  9.2090300000000003  8.2417700000000007 28.2815000000000012
  7.6571899999999999  2.7046500000000000  5.1191800000000001
  6.8571799999999996  2.9784999999999999  5.6423699999999997
  7.3689200000000001  2.9464299999999999  4.2424799999999996
  4.2543100000000003  6.5492699999999999 26.3830999999999989
  5.0523899999999999  7.0886100000000001 26.6940999999999988
  6.7450099999999997  4.5707100000000001 28.5235999999999983
  7.7124199999999998  4.6300200000000000 28.7340000000000018
  4.6183500000000004  0.3086920000000000 30.0015000000000001
  7.6810499999999999  5.4492599999999998 29.2404000000000011
  4.3319599999999996  1.1020300000000001 29.5970000000000013
  3.9274800000000001  6.8367699999999996 25.4376999999999995
  4.5042700000000000  0.9700350000000000 28.6837000000000018
  0.4466260000000000  3.7878500000000002 24.0834000000000010
  9.6488899999999997  3.8173599999999999 23.6925999999999988
  0.8965610000000001  4.5463199999999997 23.7145000000000010
  8.1266499999999997  3.9271400000000001 23.1048000000000009
  8.1788000000000007  7.4456100000000003 23.3321000000000005
  3.9313099999999999  8.0238600000000009  3.7328500000000000
  4.4464199999999998  7.2460000000000004  3.4620199999999999
  8.8753299999999999  3.7870900000000001  6.9835599999999998
  4.0302800000000003  6.5655700000000001  4.0693200000000003
  9.5592600000000001  4.5371199999999998  7.1367200000000004
  8.3786900000000006  3.4212199999999999 22.2917999999999985
  9.0094700000000003  5.3356500000000002  7.2042799999999998
  5.1331600000000002  4.0041399999999996 27.7870999999999988
  4.3045499999999999  3.9960900000000001 28.3780999999999999
  4.9566699999999999  4.7982699999999996 27.1894999999999989
  7.9151199999999999  3.6353599999999999  2.1781500000000000
  1.0703800000000001  7.8802399999999997  5.3856299999999999
  1.2435000000000000  8.0009599999999992  6.3228200000000001
  8.7212300000000003  2.2331599999999998 26.6607999999999983
  1.6475400000000000  7.1323699999999999  6.5921700000000003
  7.8375100000000000  1.7579800000000001 26.7661000000000016
  7.5380099999999999  2.2472500000000002 27.5612999999999992
  9.2932000000000006  8.7224299999999992 29.1109000000000009
  8.7205499999999994  0.7592560000000000 28.9402000000000008
  7.5084099999999996  3.2983500000000001 23.6259000000000015
  3.3950800000000001  0.9491350000000000  3.6750400000000001
  2.7194099999999999  1.0865800000000001  2.9875699999999998
  2.8984500000000000  1.2493000000000001  4.5111299999999996
  6.6632899999999999  2.7250899999999998 24.6377999999999986
  6.9570600000000002  2.2790699999999999 25.4632000000000005
  5.8543200000000004  2.3072900000000001 24.1844000000000001
  8.6271400000000007  6.9405200000000002 26.7545999999999999
  8.6483699999999999  6.8462199999999998 25.7760999999999996
  9.4580599999999997  6.4535600000000004 27.0759000000000007
  0.5831890000000000  1.2015300000000000  2.5815999999999999
  0.7495520000000000  1.9115100000000000  3.2954300000000001
  0.8831920000000000  1.4622800000000000  1.6855000000000000
  5.3627900000000004  2.5394100000000002  6.6758899999999999
  5.3030799999999996  3.4438399999999998  6.9938500000000001
  5.5684199999999997  1.9974099999999999  7.4022199999999998
