Cu O  H  O  H  O  H  O  H  O  H  O  H  O  H  O  H  O  H  O  H  O  H  O  H  O  H  O  H  O  H  O  H  O  H  O  H  O  H  O  H  O  H  O  H  O  H  O  H  O  H  O  H  O  H  O  H  O  H  O  H  O  H  O  H  O  H  O  H  O  H  O  H  O  H  O  H  O  H  O  H  O  H  O  H  O  H  O  H  O  H  O  H  O  H  O  H  O  H  O  H 
 1.0000000000000000
    10.1403771778044529    0.0000000000000000    0.0000000000000000
     0.0000000000000000    8.7818242399346058    0.0000000000000000
     0.0000000000000000    0.0000000000000000   30.1311271579000000
 Cu  O   H   O   H   O   H   O   H   O   H   O   H   O   H   O   H   O   H   O   H   O   H   O   H   O   H   O   H   O   H   O   H   O   H   O   H   O   H   O   H   O   H   O   H   O   H   O   H   O   H   O   H   O   H   O   H   O   H   O   H   O   H   O   H   O   H   O   H   O   H   O   H   O   H   O   H   O   H   O   H   O   H   O   H   O   H   O   H   O   H   O   H   O   H   O   H   O   H   O   H  
  96   1   2   1   2   1   2   1   2   1   2   1   2   1   2   1   2   1   2   1   2   1   2   1   2   1   2   1   2   1   2   1   1   1   2   1   2   1   3   1   2   1   2   1   2   1   1   1   2   1   2   1   2   1   2   1   2   1   1   1   2   1   3   1   2   1   2   1   2   1   2   1   2   1   2   1   2   1   2   1   2   1   2   1   4   1   2   1   1   1   2   1   2   1   2   1   2   1   2   1   2
Cartesian
  7.0108800000000002  1.0381600000000000  9.9400600000000008
  9.6350300000000004  1.0134500000000000  9.8698700000000006
  2.1513000000000000  1.1840700000000000  9.9899299999999993
  4.5390499999999996  1.0546100000000000  9.9231700000000007
  8.1512399999999996  3.3206099999999998  9.7047399999999993
  0.5005690000000000  3.2893900000000000 10.0222999999999995
  3.2760199999999999  3.3257699999999999 10.0090000000000003
  5.7360400000000000  3.2361000000000000 10.0350000000000001
  9.5065200000000001  5.4584299999999999  9.8547100000000007
  1.8617400000000000  5.3807200000000002  9.8236699999999999
  4.5556099999999997  5.5107900000000001  9.9165200000000002
  7.0154699999999997  5.4978100000000003 10.0241000000000007
  0.7329059999999999  7.7728700000000002 10.0281000000000002
  3.2056600000000000  7.8004199999999999  9.8637300000000003
  5.7233900000000002  7.6174400000000002  9.9258799999999994
  8.2806800000000003  7.6956300000000004  9.9562700000000000
  5.7796900000000004  1.7504299999999999 11.9098000000000006
  8.2866700000000009  1.9344699999999999 11.8447999999999993
  0.7251940000000000  1.9111000000000000 11.9879999999999995
  3.2200700000000002  1.8607199999999999 11.9787999999999997
  7.1098299999999997  3.9618400000000000 11.9618000000000002
  9.4811899999999998  4.1246400000000003 11.9440000000000008
  1.9426900000000000  4.0683699999999998 12.0092999999999996
  4.5682900000000002  4.1866700000000003 12.0761000000000003
  8.3057099999999995  6.3604599999999998 12.1309000000000005
  0.6056200000000000  6.1508000000000003 11.8399999999999999
  3.3044799999999999  6.2962100000000003 11.8632000000000009
  5.8870600000000000  6.2756800000000004 12.0068000000000001
  9.4862699999999993  8.5283300000000004 11.9925999999999995
  1.8358000000000001  8.4304299999999994 12.1166999999999998
  4.3864599999999996  8.3388700000000000 11.9855999999999998
  7.0019200000000001  8.4840999999999998 12.0785000000000000
  5.7039600000000004  0.3659090000000000 14.0305999999999997
  8.2390600000000003  0.3659090000000000 14.0305999999999997
  0.6337739999999999  0.3659090000000000 14.0305999999999997
  3.1688700000000001  0.3659090000000000 14.0305999999999997
  6.9715100000000003  2.5613700000000001 14.0305999999999997
  9.5066000000000006  2.5613700000000001 14.0305999999999997
  1.9013199999999999  2.5613700000000001 14.0305999999999997
  4.4364200000000000  2.5613700000000001 14.0305999999999997
  8.2390600000000003  4.7568200000000003 14.0305999999999997
  0.6337739999999999  4.7568200000000003 14.0305999999999997
  3.1688700000000001  4.7568200000000003 14.0305999999999997
  5.7039600000000004  4.7568200000000003 14.0305999999999997
  9.5066000000000006  6.9522800000000000 14.0305999999999997
  1.9013199999999999  6.9522800000000000 14.0305999999999997
  4.4364200000000000  6.9522800000000000 14.0305999999999997
  6.9715100000000003  6.9522800000000000 14.0305999999999997
  6.9715100000000003  1.0977300000000001 16.1005000000000003
  9.5066000000000006  1.0977300000000001 16.1005000000000003
  1.9013199999999999  1.0977300000000001 16.1005000000000003
  4.4364200000000000  1.0977300000000001 16.1005000000000003
  8.2390600000000003  3.2931800000000000 16.1005000000000003
  0.6337739999999999  3.2931800000000000 16.1005000000000003
  3.1688700000000001  3.2931800000000000 16.1005000000000003
  5.7039600000000004  3.2931800000000000 16.1005000000000003
  9.5066000000000006  5.4886400000000002 16.1005000000000003
  1.9013199999999999  5.4886400000000002 16.1005000000000003
  4.4364200000000000  5.4886400000000002 16.1005000000000003
  6.9715100000000003  5.4886400000000002 16.1005000000000003
  0.6337739999999999  7.6840999999999999 16.1005000000000003
  3.1688700000000001  7.6840999999999999 16.1005000000000003
  5.7039600000000004  7.6840999999999999 16.1005000000000003
  8.2390600000000003  7.6840999999999999 16.1005000000000003
  5.5192199999999998  1.9194199999999999 18.0445999999999991
  8.1632599999999993  1.8601799999999999 18.1531999999999982
  0.6570150000000000  1.8399399999999999 18.1645000000000003
  3.1134200000000001  1.8465900000000000 18.2476999999999983
  6.8866600000000000  4.0954800000000002 18.1652999999999984
  9.5303000000000004  4.0232200000000002 18.1753999999999998
  1.8659600000000001  4.1463599999999996 18.1020000000000003
  4.3864700000000001  4.0282499999999999 18.1793000000000013
  8.2292900000000007  6.3582400000000003 18.2272999999999996
  0.5860370000000000  6.2607100000000004 18.2804000000000002
  3.1227299999999998  6.2288899999999998 18.1287999999999982
  5.6281999999999996  6.3001699999999996 18.3094999999999999
  9.4234600000000004  8.4817699999999991 18.1289000000000016
  1.9296100000000000  8.4518400000000007 18.2008000000000010
  4.3498400000000004  8.3312399999999993 18.2325000000000017
  6.8109799999999998  8.4430700000000005 18.2634000000000007
  5.5525599999999997  0.4526890000000000 20.1220999999999997
  7.9836600000000004  0.5583040000000000 20.3005999999999993
  0.4768970000000000  0.4003140000000000 20.1165999999999983
  2.9257900000000001  0.4264340000000000 20.2511000000000010
  6.9312500000000004  2.6859199999999999 20.1328999999999994
  9.4563100000000002  2.6238999999999999 20.1185000000000009
  1.8876299999999999  2.5847400000000000 20.1710999999999991
  4.5014000000000003  2.5633400000000002 20.2364999999999995
  8.1101700000000001  4.9066200000000002 20.1596000000000011
  0.5645980000000000  4.7486300000000004 20.2714999999999996
  3.2084999999999999  4.8158700000000003 20.2753000000000014
  5.5860399999999997  4.8218399999999999 20.3322000000000003
  9.4554200000000002  7.1012199999999996 20.2143000000000015
  1.8370700000000000  6.8490599999999997 20.2529000000000003
  4.4285300000000003  6.9713000000000003 20.3538999999999994
  7.0052899999999996  7.1145899999999997 20.4584000000000010
  5.4915500000000002  0.1945450000000000 23.3396000000000008
  5.1097000000000001  8.6374399999999998 22.5355999999999987
  5.8556999999999997  1.1301300000000001 23.1264000000000003
  5.7257600000000002  4.1785199999999998 27.0488000000000000
  5.7297000000000002  5.1526500000000004 26.8718000000000004
  4.8178500000000000  3.8193899999999998 26.8412000000000006
  4.7358799999999999  8.3473600000000001  5.8037400000000003
  1.7850299999999999  1.4041800000000000 28.0597999999999992
  5.0191800000000004  0.3310330000000000  5.2267299999999999
  4.0028899999999998  6.0641800000000003 23.2236000000000011
  4.1532700000000000  6.4409999999999998 22.3444000000000003
  3.0441500000000001  6.2592400000000001 23.3423000000000016
  5.7788399999999998  6.8693499999999998 26.8512999999999984
  6.5278700000000001  7.3073699999999997 26.3292000000000002
  5.0005600000000001  7.4356499999999999 26.6600999999999999
  8.4493700000000000  3.0848499999999999 29.3478999999999992
  2.6288000000000000  7.4329099999999997 29.8098999999999990
  8.0207400000000000  3.0087000000000002  0.0677640000000000
  2.6079599999999998  0.2588650000000000 24.1781000000000006
  2.3155999999999999  3.7466900000000001  0.1216320000000000
  2.0004599999999999  1.0217400000000001 24.0783999999999985
  1.7561400000000000  7.4592299999999998  0.0316112000000000
  5.3590700000000000  3.9373800000000001 28.6403999999999996
  1.6288499999999999  8.3209499999999998  0.4861420000000000
  0.4633460000000000  1.3784500000000000 29.4646000000000008
  9.8969799999999992  2.1163300000000000 29.3352000000000004
  4.0139899999999997  4.4832599999999996 23.6067999999999998
  3.9261300000000001  3.4839300000000000 23.6660000000000004
  3.7690399999999999  3.2530700000000001 22.7382999999999988
  3.7896700000000001  3.9417200000000001  6.7368199999999998
  5.3549600000000002  4.0028400000000000 29.6518000000000015
  5.8020100000000001  3.2000099999999998 29.9985999999999997
  9.3938199999999998  3.7142900000000001 25.3262000000000000
  0.2697180000000000  5.5269100000000000  1.5908300000000000
  0.8810180000000000  6.0101199999999997  0.9981810000000000
  0.1925610000000000  5.9410800000000004  2.4801700000000002
  3.0289999999999999  3.4137900000000001  0.6361590000000000
  8.5054700000000008  3.9729899999999998 29.0147000000000013
  3.8459599999999998  3.6196000000000002  0.1110360000000000
  1.3293400000000000  6.9109400000000001 23.3103000000000016
  0.5271540000000000  6.3510799999999996 23.0793999999999997
  1.2349300000000001  7.6486499999999999 22.7031999999999989
  2.6142300000000001  1.2461700000000000 27.6817999999999991
  3.5127600000000001  0.5515330000000001 24.0254000000000012
  2.6049500000000001  0.2983060000000000 27.4284999999999997
  1.7584900000000001  3.9158700000000000 28.3230000000000004
  0.9832890000000000  4.5105399999999998 28.3314999999999984
  1.0810200000000001  2.2712800000000000  5.0450100000000004
  1.9634199999999999  2.5416599999999998  4.7671799999999998
  0.7749120000000000  2.8655100000000000  5.6924000000000001
  9.4228600000000000  0.1711750000000000 25.6130999999999993
  8.9893400000000003  0.7389920000000000 26.2707000000000015
  9.7274999999999991  0.7634090000000000 24.9118999999999993
  8.3401399999999999  6.8444099999999999  0.4848730000000000
  8.7800600000000006  6.1812500000000004  1.0386400000000000
  7.4544499999999996  6.5063300000000002  0.6199880000000000
  2.0927899999999999  3.8514200000000001 27.4150999999999989
  4.3591899999999999  4.6340100000000000  6.5416299999999996
  4.4630700000000001  5.1396800000000002  7.3258999999999999
  6.0408900000000001  1.4487399999999999  3.7835000000000001
  5.6404199999999998  1.9039699999999999  4.5444500000000003
  6.2712199999999996  2.2088100000000002  5.1904199999999996
  0.9811800000000001  1.5854200000000001  0.1536430000000000
  9.7605199999999996  2.9158599999999999  2.5853199999999998
  0.2441210000000000  2.6771900000000000  3.2738000000000000
 10.1236999999999995  3.6717499999999998  2.1749700000000001
  0.0827226000000000  3.9853900000000002 24.8264999999999993
  9.7424999999999997  4.3743900000000000 24.0412999999999997
  9.1247900000000008  0.6877660000000000  1.8748800000000001
  9.4882399999999993  1.6116999999999999  1.9345200000000000
  7.0219399999999998  3.0891799999999998 22.6569000000000003
  6.5225999999999997  2.6602700000000001 23.3321000000000005
  5.8947000000000003  4.8073699999999997  5.3575299999999997
  5.7284100000000002  3.2221500000000001 23.4899999999999984
  6.5903999999999998  4.8322500000000002  4.7150499999999997
  9.3720800000000004  0.3461970000000000  0.9871820000000000
  7.2223400000000000  5.5046900000000001  5.0765000000000002
  5.7447499999999998  1.0865899999999999 29.9285999999999994
  6.5180899999999999  0.9525749999999999 29.3844999999999992
  6.0398899999999998  1.0535699999999999  0.7505470000000000
  9.5218000000000007  3.6790600000000002  6.9488399999999997
  9.8893500000000003  3.5485899999999999  7.8381499999999997
  8.8065800000000003  0.7681470000000000 28.6920000000000002
  8.0928199999999997  0.3031060000000000 28.3128999999999991
  8.2105200000000007  6.3837400000000004 23.5275999999999996
  8.9510299999999994  5.8588800000000001 23.0515000000000008
  9.2576300000000007  4.5920800000000002  6.9712899999999998
  8.6132500000000007  5.7601599999999999 22.1279000000000003
  4.7678099999999999  7.0598799999999997  0.2297010000000000
  5.1915500000000003  6.4781500000000003 29.7552999999999983
  4.8312299999999997  8.0230499999999996 30.1209999999999987
  2.8906299999999998  2.4781599999999999 26.4768000000000008
  3.0907100000000001  3.3577499999999998 26.1707000000000001
  1.7650100000000000  0.5485110000000000  4.7810100000000002
  3.1776700000000000  3.3202199999999999 25.1575999999999986
  1.9394700000000000  0.1102970000000000  3.9269799999999999
  2.5323199999999999  8.1429899999999993  4.0101399999999998
  8.9758499999999994  6.0978700000000003 29.1206999999999994
  7.4197100000000002  7.3853600000000004 24.6157000000000004
  8.0836699999999997  7.9583700000000004 25.0483000000000011
  6.8440000000000003  8.0262600000000006 24.0875999999999983
  9.8824199999999998  7.1420500000000002  3.6741100000000002
  9.4735499999999995  7.7828499999999998  3.0383800000000001
  1.9939700000000000  0.8661930000000000  2.3981599999999998
  2.0751900000000001  0.8216490000000000  1.4438500000000001
  3.3648500000000001  5.4755000000000003  4.1087999999999996
  2.5319600000000002  1.6430600000000000  1.1550300000000000
  3.0640999999999998  6.3588899999999997  4.4325400000000004
  0.5880060000000000  7.5777599999999996  3.7939799999999999
  3.8142600000000000  6.6218599999999999  5.0521700000000003
  0.4911670000000000  6.1263100000000001 26.1727999999999987
  0.3779370000000000  6.9857699999999996 25.7468000000000004
  0.4672050000000000  5.3228999999999997 25.6295999999999999
  2.2206199999999998  8.8088899999999999  6.8923300000000003
  7.9930700000000003  8.2728400000000004 28.8256000000000014
  7.5404099999999996  0.4554280000000000  2.2333599999999998
  6.6458599999999999  0.2947980000000000  2.4752999999999998
  6.6867599999999996  4.4721000000000002  1.9425399999999999
  6.4972700000000003  8.1280900000000003  2.3688699999999998
  6.7708199999999996  3.5138300000000000  1.9785100000000000
  1.9638899999999999  0.4076550000000000  7.7411399999999997
  7.1313100000000000  3.2826200000000001  2.8780500000000000
  7.2129700000000003  2.4983700000000000  6.6986800000000004
  8.1432400000000005  2.9317400000000000  6.7908900000000001
  6.5129799999999998  2.8954800000000001  7.2441300000000002
  3.9773499999999999  8.7035599999999995  6.3220700000000001
  4.3862199999999998  3.0855800000000002  3.7527300000000001
  3.8127900000000001  3.8302299999999998  3.3517500000000000
  7.6129300000000004  2.8396400000000002 25.3135000000000012
  3.5279500000000001  3.5981100000000001  2.5034399999999999
  8.0386000000000006  2.9219900000000001 26.1373999999999995
  7.4298299999999999  3.4523799999999998 26.6694999999999993
  9.4336099999999998  5.6019800000000002 28.4180999999999990
  9.6143800000000006  6.2183099999999998 27.6388999999999996
  1.8410200000000001  7.9293600000000000  6.9655600000000000
  2.9067099999999999  7.5353700000000003 26.4796000000000014
  2.6720999999999999  7.8135599999999998 25.6009999999999991
  2.2129200000000000  6.8943000000000003 26.7298000000000009
  0.1431730000000000  1.6148800000000001 23.3992000000000004
 -0.0338372000000000  1.5969199999999999 22.4364999999999988
  0.1052100000000000  2.5621499999999999 23.6092000000000013
  7.2721499999999999  8.6349499999999999  6.5878500000000004
  6.3268599999999999  8.5379199999999997  6.6240600000000001
  7.3571700000000000  0.8181300000000000  6.7206500000000000
  6.3182900000000002  6.1965399999999997  2.3534099999999998
  5.5558699999999996  6.5184600000000001  1.8968100000000001
  6.0704799999999999  5.6098600000000003  3.1231599999999999
  8.6004600000000000  6.3648899999999999  6.0203100000000003
  9.1265499999999999  6.8073600000000001  5.3483599999999996
  8.1898999999999997  7.0726399999999998  6.4022600000000001
