Cu O  H  O  H  O  H  O  H  O  H  O  H  O  H  O  H  O  H  O  H  O  H  O  H  O  H  O  H  O  H  O  H  O  H  O  H  O  H  O  H  O  H  O  H  O  H  O  H  O  H  O  H  O  H  O  H  O  H  O  H  O  H  O  H  O  H  O  H  O  H  O  H  O  H  O  H  O  H  O  H  O  H  O  H  O  H  O  H  O  H  O  H  O  H  O  H  O  H  O  H 
 1.0000000000000000
    10.1403771778044529    0.0000000000000000    0.0000000000000000
     0.0000000000000000    8.7818242399346058    0.0000000000000000
     0.0000000000000000    0.0000000000000000   30.1311271579000000
 Cu  O   H   O   H   O   H   O   H   O   H   O   H   O   H   O   H   O   H   O   H   O   H   O   H   O   H   O   H   O   H   O   H   O   H   O   H   O   H   O   H   O   H   O   H   O   H   O   H   O   H   O   H   O   H   O   H   O   H   O   H   O   H   O   H   O   H   O   H   O   H   O   H   O   H   O   H   O   H   O   H   O   H   O   H   O   H   O   H   O   H   O   H   O   H   O   H   O   H   O   H  
  96   1   2   1   2   1   2   1   2   1   2   1   2   1   2   1   2   1   2   1   2   1   2   1   2   1   2   1   2   1   2   1   1   1   2   1   2   1   3   1   2   1   2   1   2   1   1   1   2   1   2   1   2   1   2   1   2   1   1   1   2   1   3   1   2   1   2   1   2   1   2   1   2   1   2   1   2   1   2   1   2   1   2   1   4   1   2   1   1   1   2   1   2   1   2   1   2   1   2   1   2
Cartesian
  6.9370000000000003  1.0359300000000000  9.9880800000000001
  9.5410900000000005  1.0177300000000000  9.9078999999999997
  1.9270099999999999  1.0792200000000001  9.8457200000000000
  4.3144099999999996  0.8928469999999999  9.7095000000000002
  8.2897099999999995  3.2504200000000001 10.0416000000000007
  0.5979520000000000  3.1980499999999998  9.9586799999999993
  3.1985700000000001  3.2505700000000002  9.9804999999999993
  5.7965099999999996  3.2840900000000000  9.9564100000000000
  9.4328900000000004  5.5586200000000003  9.8328000000000007
  1.8149900000000001  5.5293900000000002  9.9533500000000004
  4.4152800000000001  5.3976300000000004 10.0183000000000000
  7.1099699999999997  5.4985299999999997  9.9750999999999994
  0.6362280000000000  7.7147699999999997  9.8549799999999994
  3.1527699999999999  7.5738500000000002  9.7144700000000004
  5.6968500000000004  7.6555700000000000  9.7994699999999995
  8.2423599999999997  7.6967299999999996  9.7944099999999992
  5.7252900000000002  1.8390599999999999 12.0761000000000003
  8.3154400000000006  1.6451199999999999 11.9672000000000001
  0.6908640000000000  1.8170599999999999 12.0577000000000005
  3.2243100000000000  1.7997000000000001 11.8207000000000004
  7.0682900000000002  3.9689399999999999 11.9674999999999994
  9.5267199999999992  3.9507300000000001 11.9772999999999996
  1.9325399999999999  4.0066699999999997 11.9444999999999997
  4.5097399999999999  3.8952300000000002 12.0754000000000001
  8.1948399999999992  6.1508399999999996 12.0069999999999997
  0.6005290000000000  6.1417000000000002 11.8718000000000004
  3.1730000000000000  6.1183600000000000 11.9454999999999991
  5.6406200000000002  6.2028699999999999 12.0472000000000001
  9.5934899999999992  8.3107799999999994 11.9468999999999994
  1.9579200000000001  8.2845999999999993 11.9151000000000007
  4.4151899999999999  8.4338700000000006 11.9448000000000008
  6.9805400000000004  8.3052200000000003 11.9672999999999998
  5.7039600000000004  0.3659090000000000 14.0305999999999997
  8.2390600000000003  0.3659090000000000 14.0305999999999997
  0.6337739999999999  0.3659090000000000 14.0305999999999997
  3.1688700000000001  0.3659090000000000 14.0305999999999997
  6.9715100000000003  2.5613700000000001 14.0305999999999997
  9.5066000000000006  2.5613700000000001 14.0305999999999997
  1.9013199999999999  2.5613700000000001 14.0305999999999997
  4.4364200000000000  2.5613700000000001 14.0305999999999997
  8.2390600000000003  4.7568200000000003 14.0305999999999997
  0.6337739999999999  4.7568200000000003 14.0305999999999997
  3.1688700000000001  4.7568200000000003 14.0305999999999997
  5.7039600000000004  4.7568200000000003 14.0305999999999997
  9.5066000000000006  6.9522800000000000 14.0305999999999997
  1.9013199999999999  6.9522800000000000 14.0305999999999997
  4.4364200000000000  6.9522800000000000 14.0305999999999997
  6.9715100000000003  6.9522800000000000 14.0305999999999997
  6.9715100000000003  1.0977300000000001 16.1005000000000003
  9.5066000000000006  1.0977300000000001 16.1005000000000003
  1.9013199999999999  1.0977300000000001 16.1005000000000003
  4.4364200000000000  1.0977300000000001 16.1005000000000003
  8.2390600000000003  3.2931800000000000 16.1005000000000003
  0.6337739999999999  3.2931800000000000 16.1005000000000003
  3.1688700000000001  3.2931800000000000 16.1005000000000003
  5.7039600000000004  3.2931800000000000 16.1005000000000003
  9.5066000000000006  5.4886400000000002 16.1005000000000003
  1.9013199999999999  5.4886400000000002 16.1005000000000003
  4.4364200000000000  5.4886400000000002 16.1005000000000003
  6.9715100000000003  5.4886400000000002 16.1005000000000003
  0.6337739999999999  7.6840999999999999 16.1005000000000003
  3.1688700000000001  7.6840999999999999 16.1005000000000003
  5.7039600000000004  7.6840999999999999 16.1005000000000003
  8.2390600000000003  7.6840999999999999 16.1005000000000003
  5.7430099999999999  1.8088500000000001 18.2180999999999997
  8.3581500000000002  1.9558500000000001 18.2256000000000000
  0.7786550000000000  1.8477900000000000 18.1280999999999999
  3.2589700000000001  1.9126200000000000 18.2439999999999998
  7.0593800000000000  4.0472299999999999 18.1118999999999986
  9.5764700000000005  4.1305100000000001 18.1431000000000004
  1.8776200000000001  4.0077499999999997 18.1990000000000016
  4.4476100000000001  4.1762400000000000 18.0599999999999987
  8.2151099999999992  6.3571499999999999 18.1396000000000015
  0.7528830000000000  6.2588800000000004 18.2247999999999983
  3.1806899999999998  6.2129099999999999 18.1687000000000012
  5.7679299999999998  6.2144800000000000 18.1539000000000001
  9.5635800000000000  8.4767799999999998 18.2069000000000010
  1.9668399999999999  8.4036600000000004 18.1341999999999999
  4.3887999999999998  8.4293200000000006 18.0784999999999982
  6.9155899999999999  8.4740300000000008 18.0703999999999994
  5.8335200000000000  0.3739160000000000 20.2242999999999995
  8.2642199999999999  0.3775610000000000 20.0942000000000007
  0.6729750000000000  0.4270440000000000 20.2514000000000003
  3.2631500000000000  0.4036790000000000 20.2319999999999993
  6.8903400000000001  2.6344900000000000 20.1475000000000009
  9.4548500000000004  2.6397499999999998 20.1483999999999988
  1.9086399999999999  2.6628599999999998 20.2948999999999984
  4.5239099999999999  2.5946300000000000 20.1686000000000014
  8.3352699999999995  4.8367300000000002 20.2242999999999995
  0.6453010000000000  4.7112600000000002 20.1937999999999995
  3.1970900000000002  4.8244999999999996 20.1525999999999996
  5.7178800000000001  4.8265799999999999 20.1467999999999989
  9.5210100000000004  7.0933900000000003 20.2465000000000011
  1.9773499999999999  6.9330299999999996 20.1393999999999984
  4.5349800000000000  6.9982499999999996 20.2530000000000001
  7.0636400000000004  6.9891399999999999 20.1402000000000001
  4.5692000000000004  1.0660700000000001 23.4258999999999986
  3.7839900000000002  1.2083699999999999 22.8917000000000002
  5.0975099999999998  0.4782670000000000 22.8382000000000005
  9.6414500000000007  0.5411070000000000 25.9276000000000018
  0.1737680000000000  1.2711600000000001 25.6189999999999998
  9.7241800000000005  0.0011450500000000 25.0953000000000017
  9.2644400000000005  1.3259700000000001  5.8017200000000004
  8.5293899999999994  3.0734699999999999 29.5472999999999999
  9.6619700000000002  0.5170450000000000  6.2363400000000002
  6.3502200000000002  3.1591600000000000 23.5624000000000002
  5.8041000000000000  2.3919199999999998 23.2740000000000009
  5.6418499999999998  3.8416800000000002 23.7588000000000008
  8.7299500000000005  4.5324999999999998 26.3611000000000004
  9.1868499999999997  4.2960300000000000 27.1998999999999995
  7.8130600000000001  4.7530900000000003 26.5686000000000000
  0.9921300000000000  8.4395199999999999 23.5078999999999994
  9.8001400000000007  6.3750900000000001 22.9207999999999998
  1.4836000000000000  0.4538390000000000 23.9433000000000007
  8.9767700000000001  3.3173200000000000 23.9996000000000009
  1.5787700000000000  5.1283899999999996  0.7937100000000000
  8.1194900000000008  3.3899800000000000 23.5055000000000014
  8.8288200000000003  6.3643299999999998 23.0686000000000000
  3.5946400000000001  5.8880200000000000  5.8787399999999996
  8.6399000000000008  5.3631000000000002 23.1103999999999985
  1.4031000000000000  4.1684500000000000 27.2665000000000006
  1.4533000000000000  3.9871400000000001 28.2063999999999986
  1.6830200000000000  7.1964399999999999 29.9421999999999997
  1.8210100000000000  7.9442599999999999 29.2702999999999989
  1.4060900000000001  7.5636999999999999 28.4695000000000000
  2.0892200000000001  2.7133799999999999  7.5561199999999999
  2.7995299999999999  5.3418599999999996  5.6886000000000001
  2.8243499999999999  4.4700400000000000  6.1526199999999998
  3.2097099999999998  4.5228099999999998 23.9971999999999994
  4.3400200000000000  8.4053799999999992 25.8521000000000001
  4.2052600000000000  0.0677165000000000 25.0060000000000002
  4.1634799999999998  0.3226690000000000 26.5551999999999992
  1.4174300000000000  6.0735200000000003  1.0215200000000000
  0.9019290000000000  8.7506900000000005 22.5832000000000015
  1.9127300000000000  5.9382500000000000  1.8957599999999999
  2.4022999999999999  5.7965600000000004 23.2482000000000006
  2.0215600000000000  6.6355199999999996 23.3580000000000005
  2.6806500000000000  5.8115500000000004 22.2814000000000014
  8.9308499999999995  2.6523400000000001 28.7833000000000006
  8.7538699999999992  3.7408999999999999 24.8288000000000011
  8.1481800000000000  2.2909500000000000 28.3499000000000017
  1.6852499999999999  3.6000100000000002 29.8771999999999984
  1.2668900000000001  2.8544800000000001  0.2173280000000000
  1.9865299999999999  5.7655399999999997  3.3215200000000000
  1.1980900000000001  5.1770500000000004  3.5199500000000001
  2.5044900000000001  5.5302100000000003  4.1179399999999999
  0.4842270000000000  1.3431400000000000  0.2779630000000000
 -0.2237800000000000  1.6829099999999999 29.8615999999999993
  1.0519200000000000  0.7203710000000000 -0.1617270000000000
  2.1244100000000001  0.1084440000000000  3.6132499999999999
  1.9877000000000000  7.9853699999999996  3.3573200000000001
  2.7149999999999999  8.7582900000000006  4.3790100000000001
  2.6975099999999999  3.4603999999999999 29.8542999999999985
  2.3905400000000001  2.8649000000000000  6.6363000000000003
  1.5111600000000001  2.9426399999999999  6.2390299999999996
  9.0652100000000004  4.1837999999999997  7.5892099999999996
  8.7456200000000006  3.7199300000000002  6.7725099999999996
  7.8328899999999999  4.0224000000000002  6.7168200000000002
  1.1064099999999999  3.3650600000000002 26.9103999999999992
  5.1770399999999999  6.6586499999999997  6.4933899999999998
  5.1362399999999999  6.8730399999999996  7.4397099999999998
  6.1185400000000003  6.4246800000000004  6.2351500000000000
  3.7322600000000001  3.8560699999999999 24.5345000000000013
  3.9062800000000002  4.4952100000000002 25.2860000000000014
  5.8768099999999999  6.0339999999999998  1.3855000000000000
  5.3993200000000003  6.5017899999999997  2.0399300000000000
  8.3371899999999997  4.1689299999999996  1.5351500000000000
  8.2024500000000007  3.2241300000000002  1.3272699999999999
  4.9990600000000001  3.2972700000000001 30.0219999999999985
  8.6736100000000000  2.6976800000000001  2.0096500000000002
  4.1530399999999998  3.4522599999999999  0.3057920000000000
  5.2668299999999997  5.3113400000000004  1.2009799999999999
  4.2718200000000000  2.7582300000000002  1.0515399999999999
  6.5107999999999997  0.6508090000000000  1.1932600000000000
  7.0722899999999997  1.4770000000000001  1.1446099999999999
  6.9661299999999997  8.8522800000000004  1.8653700000000000
  9.5610800000000005  0.9846700000000000  2.7631500000000000
 10.2434999999999992  1.1653300000000000  3.3992100000000001
  3.4870199999999998  6.8091999999999997 26.5128999999999984
  3.5926499999999999  5.8065199999999999 26.5692999999999984
  5.0743000000000000  3.5622199999999999  3.6366700000000001
  5.6072199999999999  4.3348000000000004  3.9103900000000000
 10.0581999999999994  0.8803290000000000  1.8851700000000000
  6.0122900000000001  4.0012499999999998  4.6954599999999997
  6.9473599999999998  0.7396610000000000 26.7353999999999985
  7.6550900000000004  0.3630180000000000 26.2466000000000008
  6.2359900000000001  0.0667629000000000 26.6368000000000009
  9.7557200000000002  6.3364000000000003 26.7569000000000017
  0.1630740000000000  6.9280400000000002 27.2885999999999989
  3.5436800000000002  0.9576180000000000  6.3162900000000004
  9.9196799999999996  7.7652000000000001 26.9534999999999982
  3.6311100000000001  0.1685580000000000  5.7863100000000003
  3.9304199999999998  8.2610299999999999  6.4175399999999998
  6.1960300000000004  3.0663399999999998 28.4909999999999997
  1.5261700000000000  2.3229700000000002 24.2368999999999986
  2.2605599999999999  2.8552399999999998 24.5061000000000000
  0.6335450000000000  2.7684899999999999 24.2871999999999986
  0.2899430000000000  6.8767399999999999  6.5481199999999999
  0.4071430000000000  7.3233800000000002  7.3748899999999997
  4.0976800000000004  2.5943299999999998 25.9718000000000018
  4.5597099999999999  2.0821800000000001 26.6718000000000011
  8.6351700000000005  6.5614999999999997  0.2657000000000000
  5.4736500000000001  2.0059700000000000 26.3140999999999998
  8.9569100000000006  6.1642999999999999  1.0930000000000000
  0.9180830000000000  6.1399100000000004  6.3849299999999998
  9.9176599999999997  6.2322699999999998  0.9674640000000000
  7.7317099999999996  6.4081900000000003  5.5956900000000003
  8.6880100000000002  6.5338300000000000  5.8173800000000000
  7.6953899999999997  6.7609800000000000  4.7000900000000003
  6.1627299999999998  4.9632399999999999 27.5932999999999993
  2.7139000000000002  5.3978200000000003 26.6822000000000017
  3.9424299999999999  8.3202599999999993 29.4301999999999992
  4.8748899999999997  8.5211500000000004 29.3617999999999988
  5.0224900000000003  6.2320500000000001  3.6692000000000000
  5.1165599999999998  8.9550000000000001  0.0535384000000000
  4.6134199999999996  7.1055599999999997  3.6123400000000001
  5.2568999999999999  5.1744599999999998 27.3454000000000015
  5.3729300000000002  7.6731600000000002  3.7950400000000002
  6.3914900000000001  1.0882300000000000  4.7802899999999999
  7.2995599999999996  1.3557100000000000  4.8191499999999996
  6.0700399999999997  1.3049800000000000  5.6629699999999996
  9.1135900000000003  2.0614300000000001  6.4377899999999997
  2.1909800000000001  1.8782500000000000  3.8058399999999999
  2.0322600000000000  2.8222600000000000  3.9676900000000002
  6.4830600000000000  7.5527899999999999 29.2882999999999996
  2.5671200000000001  3.2058399999999998  3.2914500000000002
  7.3616200000000003  7.4004099999999999 28.8823000000000008
  7.5178000000000003  8.2168200000000002 28.4023000000000003
  6.2568700000000002  2.3874499999999999 29.1542999999999992
  5.6443500000000002  1.6673600000000000 28.9206000000000003
  6.5389799999999996  5.7598799999999999 27.9665999999999997
  7.7601199999999997  7.5980600000000003  3.1130200000000001
  8.3777500000000007  8.3964200000000009  3.0533500000000000
  8.2165599999999994  7.0183499999999999  2.4241700000000002
  6.9664599999999997  8.3184900000000006 23.0249999999999986
  7.2027799999999997  0.4874450000000000 23.1287999999999982
  7.8040099999999999  7.8404999999999996 23.1830999999999996
  9.8666400000000003  4.3271600000000001  4.0132800000000000
  0.1419770000000000  3.4633400000000001  4.2046500000000000
  9.7046899999999994  4.6801399999999997  4.9063499999999998
  5.9709899999999996  3.4852500000000002  6.5743200000000002
  5.5347700000000000  4.2518099999999999  6.8612200000000003
  6.0649100000000002  2.9939200000000001  7.3968499999999997
  4.5176600000000002  1.7775600000000000  2.4712800000000001
  5.3622500000000004  1.3275999999999999  2.2725300000000002
  3.9108600000000000  1.0958900000000000  2.5915400000000002
