Cu O  H  O  H  O  H  O  H  O  H  O  H  O  H  O  H  O  H  O  H  O  H  O  H  O  H  O  H  O  H  O  H  O  H  O  H  O  H  O  H  O  H  O  H  O  H  O  H  O  H  O  H  O  H  O  H  O  H  O  H  O  H  O  H  O  H  O  H  O  H  O  H  O  H  O  H  O  H  O  H  O  H  O  H  O  H  O  H  O  H  O  H  O  H  O  H  O  H  O  H 
 1.0000000000000000
    10.1403771778044529    0.0000000000000000    0.0000000000000000
     0.0000000000000000    8.7818242399346058    0.0000000000000000
     0.0000000000000000    0.0000000000000000   30.1311271579000000
 Cu  O   H   O   H   O   H   O   H   O   H   O   H   O   H   O   H   O   H   O   H   O   H   O   H   O   H   O   H   O   H   O   H   O   H   O   H   O   H   O   H   O   H   O   H   O   H   O   H   O   H   O   H   O   H   O   H   O   H   O   H   O   H   O   H   O   H   O   H   O   H   O   H   O   H   O   H   O   H   O   H   O   H   O   H   O   H   O   H   O   H   O   H   O   H   O   H   O   H   O   H  
  96   1   2   1   2   1   2   1   2   1   2   1   2   1   2   1   2   1   2   1   2   1   2   1   2   1   2   1   2   1   2   1   1   1   2   1   2   1   3   1   2   1   2   1   2   1   1   1   2   1   2   1   2   1   2   1   2   1   1   1   2   1   3   1   2   1   2   1   2   1   2   1   2   1   2   1   2   1   2   1   2   1   2   1   4   1   2   1   1   1   2   1   2   1   2   1   2   1   2   1   2
Cartesian
  7.0149499999999998  1.0487500000000001  9.6722400000000004
  9.4069199999999995  1.0990000000000000 10.0222999999999995
  1.8531200000000001  1.1023900000000000 10.0376999999999992
  4.7114599999999998  1.0558300000000000 10.0434999999999999
  8.2125500000000002  3.3377599999999998  9.8834599999999995
  0.6396110000000000  3.3229000000000002  9.9030000000000005
  3.2285200000000001  3.2843700000000000  9.9218700000000002
  5.8397500000000004  3.2948900000000001 10.0359999999999996
  9.4143899999999991  5.5678000000000001  9.9523899999999994
  1.7796900000000000  5.5635199999999996  9.8742400000000004
  4.4606899999999996  5.5126400000000002 10.0078999999999994
  6.9766300000000001  5.5760399999999999  9.7592199999999991
  0.5881860000000000  7.7355700000000001  9.8240300000000005
  3.2777599999999998  7.8833900000000003  9.8148300000000006
  5.8508399999999998  7.6913700000000000  9.7319800000000001
  8.2317400000000003  7.7355299999999998  9.8104899999999997
  5.7330800000000002  1.7976399999999999 12.0028000000000006
  8.2156199999999995  2.0074999999999998 11.9481000000000002
  0.5639770000000000  1.7930500000000000 11.9262999999999995
  3.1241599999999998  1.8019400000000001 12.0021000000000004
  6.9901700000000000  4.0864099999999999 11.9972999999999992
  9.5278399999999994  4.0900400000000001 11.9666999999999994
  1.8976800000000000  4.0549999999999997 11.9532000000000007
  4.3896899999999999  4.0278400000000003 11.9817000000000000
  8.1929800000000004  6.1953300000000002 12.0007000000000001
  0.4831000000000000  6.2188200000000000 11.9101999999999997
  3.1053299999999999  6.2294799999999997 12.0300999999999991
  5.7668400000000002  6.2716500000000002 11.9308999999999994
  9.4256600000000006  8.4835600000000007 12.0137999999999998
  1.9511499999999999  8.3480399999999992 11.9458000000000002
  4.4027200000000004  8.3228399999999993 11.9478000000000009
  6.9687200000000002  8.5035799999999995 11.7963000000000005
  5.7039600000000004  0.3659090000000000 14.0305999999999997
  8.2390600000000003  0.3659090000000000 14.0305999999999997
  0.6337739999999999  0.3659090000000000 14.0305999999999997
  3.1688700000000001  0.3659090000000000 14.0305999999999997
  6.9715100000000003  2.5613700000000001 14.0305999999999997
  9.5066000000000006  2.5613700000000001 14.0305999999999997
  1.9013199999999999  2.5613700000000001 14.0305999999999997
  4.4364200000000000  2.5613700000000001 14.0305999999999997
  8.2390600000000003  4.7568200000000003 14.0305999999999997
  0.6337739999999999  4.7568200000000003 14.0305999999999997
  3.1688700000000001  4.7568200000000003 14.0305999999999997
  5.7039600000000004  4.7568200000000003 14.0305999999999997
  9.5066000000000006  6.9522800000000000 14.0305999999999997
  1.9013199999999999  6.9522800000000000 14.0305999999999997
  4.4364200000000000  6.9522800000000000 14.0305999999999997
  6.9715100000000003  6.9522800000000000 14.0305999999999997
  6.9715100000000003  1.0977300000000001 16.1005000000000003
  9.5066000000000006  1.0977300000000001 16.1005000000000003
  1.9013199999999999  1.0977300000000001 16.1005000000000003
  4.4364200000000000  1.0977300000000001 16.1005000000000003
  8.2390600000000003  3.2931800000000000 16.1005000000000003
  0.6337739999999999  3.2931800000000000 16.1005000000000003
  3.1688700000000001  3.2931800000000000 16.1005000000000003
  5.7039600000000004  3.2931800000000000 16.1005000000000003
  9.5066000000000006  5.4886400000000002 16.1005000000000003
  1.9013199999999999  5.4886400000000002 16.1005000000000003
  4.4364200000000000  5.4886400000000002 16.1005000000000003
  6.9715100000000003  5.4886400000000002 16.1005000000000003
  0.6337739999999999  7.6840999999999999 16.1005000000000003
  3.1688700000000001  7.6840999999999999 16.1005000000000003
  5.7039600000000004  7.6840999999999999 16.1005000000000003
  8.2390600000000003  7.6840999999999999 16.1005000000000003
  5.8537900000000000  1.9347000000000001 18.2300000000000004
  8.3189899999999994  1.8140700000000001 18.1935000000000002
  0.6593360000000000  1.8548600000000000 18.1657000000000011
  3.2823600000000002  1.7854099999999999 18.1555999999999997
  6.9432999999999998  4.0605599999999997 18.0883000000000003
  9.5327400000000004  3.9318200000000001 18.0946999999999996
  1.7556600000000000  4.1101099999999997 18.2729999999999997
  4.3447800000000001  4.1535599999999997 18.1832999999999991
  8.2871100000000002  6.2927000000000000 18.1065000000000005
  0.4755900000000000  6.2149900000000002 18.2487999999999992
  3.1387700000000001  6.3046499999999996 18.2634000000000007
  5.6910699999999999  6.2093299999999996 18.2626999999999988
  9.4488299999999992  8.4781200000000005 18.2548999999999992
  1.8892199999999999  8.3673999999999999 18.0980999999999987
  4.5471399999999997  8.4591600000000007 18.2185999999999986
  7.0227399999999998  8.3540600000000005 18.1697999999999986
  5.7696699999999996  0.3147160000000000 20.1966999999999999
  8.2679299999999998  0.4590030000000000 20.1995000000000005
  0.6537990000000000  0.4213440000000000 20.1955999999999989
  3.0857299999999999  0.3817600000000000 20.1235999999999997
  7.1529499999999997  2.7888700000000002 20.2299000000000007
  9.7147100000000002  2.6444100000000001 20.1919000000000004
  2.0045199999999999  2.5807199999999999 20.1678999999999995
  4.6319400000000002  2.6256499999999998 20.3161999999999985
  8.3063099999999999  4.8737300000000001 20.2131000000000007
  0.6290060000000000  4.8482399999999997 20.3414000000000001
  3.1264900000000000  4.7697000000000003 20.3775000000000013
  5.6990400000000001  4.8668800000000001 20.2835000000000001
  9.5007300000000008  7.1238200000000003 20.2759000000000000
  1.8770300000000000  7.0215899999999998 20.3880000000000017
  4.5167200000000003  6.9976900000000004 20.3000000000000007
  7.0691199999999998  6.9251800000000001 20.2922000000000011
  0.2343480000000000  2.7037000000000000 26.6291000000000011
  0.1922900000000000  2.8638200000000000 25.6934000000000005
 10.1464999999999996  3.5584500000000001 27.0012000000000008
  4.6772900000000002  3.4180700000000002 26.5435000000000016
  4.0410300000000001  4.1578400000000002 26.5797999999999988
  4.9888800000000000  3.3658600000000001 25.6018000000000008
  8.6292399999999994  7.8582700000000001 23.5701000000000001
  0.1710940000000000  3.4802900000000001  1.3699900000000000
  9.4682700000000004  8.4204299999999996 23.5865000000000009
  9.4016500000000001  4.9893400000000003 27.8752999999999993
  8.5927699999999998  4.6901599999999997 28.3651000000000018
  9.4524299999999997  5.9562299999999997 27.6492000000000004
 10.0444999999999993  3.9239199999999999 24.0063999999999993
  0.5144160000000000  4.7002300000000004 24.0259999999999998
  9.7439699999999991  3.8318699999999999 23.0997999999999983
  2.8135200000000000  5.3741399999999997 26.9667999999999992
  0.8792890000000000  1.2313000000000001 27.4045999999999985
  2.4159199999999998  4.7667400000000004 27.5791000000000004
  9.6387400000000003  7.5709799999999996 26.9564999999999984
  4.1515599999999999  3.1836300000000000  7.5261199999999997
  0.2422430000000000  8.1259700000000006 27.3543999999999983
  1.2813399999999999  0.5148640000000000 27.8963999999999999
  4.5759100000000004  1.1766200000000000 28.5374000000000017
  2.1734399999999998  0.7961120000000000 28.0010000000000012
  5.5536700000000003  0.9510570000000000  0.1116020000000000
  6.3814599999999997  0.4318440000000000  0.2463730000000000
  2.7260900000000001  1.5351600000000001 23.9496000000000002
  2.8404400000000001  2.4081399999999999 24.4754000000000005
  2.8259699999999999  2.0859200000000002 25.3771999999999984
  7.8432700000000004  8.6110399999999991  3.4400100000000000
  3.9107200000000000  1.3749899999999999 27.8613999999999997
  4.2279200000000001  2.1313300000000002 27.2587000000000010
  3.1299500000000000  4.3405699999999996 23.6917000000000009
  3.3231400000000000  0.2930050000000000  1.6876500000000001
  3.5254099999999999  1.0115700000000001  2.2476400000000001
  3.5649099999999998  8.2894000000000005  2.1782699999999999
  3.9100199999999998  3.6882299999999999  6.7743799999999998
  2.1185100000000001  5.6424099999999999 26.3826000000000001
  4.3524599999999998  4.6123200000000004  6.7666000000000004
 -0.1365280000000000  2.4870299999999999  3.2933599999999998
  9.3368500000000001  1.8114800000000000  3.5056500000000002
  9.7355400000000003  3.1833499999999999  3.9624199999999998
  0.2682450000000000  3.0759699999999999  0.5028670000000000
  8.8604099999999999  8.2449300000000001 26.9627000000000017
  9.8910000000000000  3.5969600000000002 -0.1142380000000000
  4.2243599999999999  2.3711099999999998  2.8470900000000001
  4.6753900000000002  2.3032100000000000  3.7305700000000002
  7.0661600000000000  3.5622099999999999  6.2555699999999996
  6.4622400000000004  2.8424600000000000  5.8818000000000001
  6.8240800000000004  3.7279900000000001  7.1687500000000002
  7.9766100000000000  5.1674699999999998  0.9937700000000000
  8.2534299999999998  5.7548199999999996  1.6470499999999999
  7.2944199999999997  4.5880599999999996  1.4276500000000001
  3.5896900000000000  0.7006460000000000  6.6857199999999999
  3.4421400000000002  0.8712730000000000  7.6435899999999997
  2.7747899999999999  0.9594740000000000  6.2419700000000002
  3.7810899999999998  3.2583099999999998  2.6803800000000000
  8.7438699999999994  8.6010700000000000  3.1476299999999999
  9.2249700000000008  8.2776200000000006  3.9590999999999998
  0.8499380000000000  6.3934400000000000  1.7203400000000000
  0.8197590000000000  5.6243999999999996  2.3713000000000002
  0.6604660000000000  6.0263400000000003  3.1853300000000000
  4.8561199999999998  0.5171780000000000  0.6877090000000000
  1.2789999999999999  3.6975199999999999  6.8981399999999997
  2.3087100000000000  3.7233800000000001  6.8544099999999997
  1.0073799999999999  3.7389700000000001  7.8710599999999999
  3.5120300000000002  5.2038200000000003 23.5234999999999985
  3.0381800000000001  5.5884099999999997 22.7752000000000017
  1.3592700000000000  7.6096599999999999  0.3665620000000000
  2.0069800000000000  8.2999899999999993  0.5716370000000000
  7.9380400000000000  7.6592000000000002 28.5853000000000002
  7.1656399999999998  7.4338100000000003 29.0742000000000012
 10.0792999999999999  4.3278100000000004  5.8017799999999999
  7.4888399999999997  6.8991800000000003 29.7664000000000009
  9.3972300000000004  4.6890700000000001  5.1486999999999998
  0.5509140000000000  8.0463100000000001  0.0433981000000000
  8.5860800000000008  4.2615699999999999  5.4530099999999999
  7.7176700000000000  0.6371810000000000 26.7875000000000014
  8.3911300000000004  1.2574399999999999 26.3651000000000018
  6.9323399999999999  0.7983720000000000 26.2463000000000015
  8.0421600000000009  7.8927800000000001  6.5449700000000002
  8.8894500000000001  7.9269400000000001  6.0467399999999998
  5.7850700000000002  7.5612700000000004  4.2510000000000003
  6.4857300000000002  8.1997300000000006  4.5097699999999996
  2.9674100000000001  2.6525200000000000 28.5343000000000018
  2.5491500000000000  3.5178799999999999 28.8943000000000012
  8.0759600000000002  8.1261899999999994  7.4725200000000003
  2.0182099999999998  3.2418999999999998 29.6606999999999985
  5.4267300000000001  5.8112199999999996  6.5162500000000003
  5.5183000000000000  6.3191699999999997  7.3475299999999999
  6.1418100000000004  5.2085900000000001  6.3122800000000003
  1.0756300000000001  7.2278300000000000  5.4630900000000002
  0.0871807000000000  7.3472999999999997  5.3009399999999998
  3.9304899999999998  5.8812600000000002  3.0834999999999999
  9.8838299999999997  6.4444100000000004  5.4342300000000003
  4.1892399999999999  6.6692000000000000  3.6411400000000000
  3.9686599999999999  6.5530299999999997  4.5768000000000004
  5.0765599999999997  4.6536999999999997 -0.1524420000000000
  3.3085599999999999  4.6202500000000004  1.8440500000000000
  2.4150700000000001  4.9162200000000000  2.0338900000000000
  3.5718500000000000  5.0975799999999998  1.0747199999999999
  5.3108100000000000  2.9780700000000002 23.9330999999999996
  5.1602399999999999  3.6918000000000002 23.2890000000000015
  0.3007320000000000  6.8825500000000002 25.6436999999999991
  1.1512700000000000  6.6079200000000000 25.2124999999999986
  9.3206199999999999  0.5088920000000000  1.3761000000000001
  1.3620800000000000  7.4157200000000003 24.7285000000000004
  9.2284400000000009  0.7920050000000000  0.4719870000000000
  4.3715900000000003  2.5752199999999998 24.0960000000000001
  9.5797699999999999  1.7068900000000000  0.4605010000000000
  4.9876899999999997  7.7618700000000000 23.3072000000000017
  5.1286699999999996  7.9282500000000002 22.3468000000000018
  5.3417199999999996  6.8961899999999998 23.5867000000000004
  6.1886900000000002  3.2873299999999999  1.2979900000000000
  6.7949900000000003  7.9451400000000003  5.4303299999999997
  2.3294800000000002  6.1812399999999998  6.9480899999999997
  2.6384900000000000  6.7034900000000004  6.2581899999999999
  7.3064099999999996  6.7280800000000003 24.5292999999999992
  3.0739500000000000  7.5234899999999998  6.5299100000000001
  6.6298599999999999  6.1247499999999997 24.8277999999999999
  6.5000499999999999  2.8479100000000002  0.5347410000000000
  6.4097200000000001  6.4550400000000003 25.7175000000000011
 10.0167000000000002  1.3384000000000000 22.8583999999999996
  9.0369499999999992  1.5440900000000000 22.6460000000000008
  0.3266970000000000  2.1393900000000001 23.1861999999999995
  8.5594099999999997  7.7663099999999998 22.6115999999999993
  0.8782630000000000  1.4265099999999999  4.9619000000000000
  1.2555099999999999  1.1073000000000000  5.8152600000000003
  5.2879899999999997  0.2322050000000000 24.6898000000000017
  1.0922000000000001  1.9055400000000000  6.3840100000000000
  5.1041900000000000  0.6750520000000000 25.5650000000000013
  4.9920000000000000 -0.0922488000000000 26.1685000000000016
  4.3760800000000000  5.3090700000000002 29.7049999999999983
  3.6298400000000002  4.7906399999999998 29.4142000000000010
  5.4667199999999996  2.6699600000000001  1.5984200000000000
  7.3921599999999996  1.3898600000000001 23.1613000000000007
  7.0754999999999999  0.5179840000000000 23.3797999999999995
  6.5819599999999996  2.0327600000000001 23.3844999999999992
  6.8457499999999998  2.8981200000000000 28.4698999999999991
  7.2151100000000001  2.0973000000000002 28.1509999999999998
  6.3201700000000001  3.3654600000000001 27.7429999999999986
  5.4465399999999997  1.8466600000000000  5.2561299999999997
  4.7325999999999997  1.5336200000000000  5.9058599999999997
  5.8570799999999998  1.0166900000000001  4.8924099999999999
  2.2664000000000000  8.6803600000000003 23.1463999999999999
  2.9737100000000001  8.0460999999999991 22.8796999999999997
  1.6071599999999999 -0.1055820000000000 22.4225999999999992
  5.1224499999999997  7.1308400000000001 27.1568000000000005
  5.5897399999999999  7.3527699999999996 27.9899999999999984
  4.4186399999999999  6.5091400000000004 27.3893999999999984
