Cu O  H  O  H  O  H  O  H  O  H  O  H  O  H  O  H  O  H  O  H  O  H  O  H  O  H  O  H  O  H  O  H  O  H  O  H  O  H  O  H  O  H  O  H  O  H  O  H  O  H  O  H  O  H  O  H  O  H  O  H  O  H  O  H  O  H  O  H  O  H  O  H  O  H  O  H  O  H  O  H  O  H  O  H  O  H  O  H  O  H  O  H  O  H  O  H  O  H  O  H 
 1.0000000000000000
    10.1403771778044529    0.0000000000000000    0.0000000000000000
     0.0000000000000000    8.7818242399346058    0.0000000000000000
     0.0000000000000000    0.0000000000000000   30.1311271579000000
 Cu  O   H   O   H   O   H   O   H   O   H   O   H   O   H   O   H   O   H   O   H   O   H   O   H   O   H   O   H   O   H   O   H   O   H   O   H   O   H   O   H   O   H   O   H   O   H   O   H   O   H   O   H   O   H   O   H   O   H   O   H   O   H   O   H   O   H   O   H   O   H   O   H   O   H   O   H   O   H   O   H   O   H   O   H   O   H   O   H   O   H   O   H   O   H   O   H   O   H   O   H  
  96   1   2   1   2   1   2   1   2   1   2   1   2   1   2   1   2   1   2   1   2   1   2   1   2   1   2   1   2   1   2   1   1   1   2   1   2   1   3   1   2   1   2   1   2   1   1   1   2   1   2   1   2   1   2   1   2   1   1   1   2   1   3   1   2   1   2   1   2   1   2   1   2   1   2   1   2   1   2   1   2   1   2   1   4   1   2   1   1   1   2   1   2   1   2   1   2   1   2   1   2
Cartesian
  6.9448800000000004  1.0292699999999999  9.6745000000000001
  9.5294500000000006  1.1523600000000001  9.8140099999999997
  1.7362200000000001  0.9163190000000000  9.9244800000000009
  4.3610600000000002  1.0411400000000000  9.9738900000000008
  8.1096000000000004  3.2533500000000002  9.9680300000000006
  0.5846230000000000  3.4095599999999999  9.9736499999999992
  3.0185800000000000  3.3024000000000000  9.9329000000000001
  5.6618399999999998  3.1951800000000001  9.8935499999999994
  9.3901199999999996  5.4814900000000000  9.9911300000000001
  1.8286400000000000  5.5112300000000003 10.0967000000000002
  4.3757099999999998  5.4143900000000000  9.9389400000000006
  6.9179300000000001  5.4337700000000000  9.8534600000000001
  0.6166120000000000  7.6177500000000000  9.9429599999999994
  3.1402700000000001  7.6144100000000003  9.6975700000000007
  5.7066800000000004  7.6556300000000004  9.8566800000000008
  8.3029100000000007  7.8318300000000001  9.8320399999999992
  5.7379800000000003  1.7073199999999999 12.0349000000000004
  8.2674400000000006  1.8632500000000001 12.0612999999999992
  0.5665870000000000  1.9051800000000001 11.9877000000000002
  3.1197900000000001  1.8777699999999999 12.0454000000000008
  6.9470000000000001  4.0376899999999996 12.0251999999999999
  9.5512300000000003  4.1440999999999999 12.0252999999999997
  1.9898199999999999  3.9915699999999998 11.9947999999999997
  4.4683599999999997  4.0496400000000001 12.0147999999999993
  8.2806800000000003  6.2060700000000004 12.0371000000000006
  0.5496290000000000  6.3220799999999997 12.0821000000000005
  2.9947800000000000  6.3275800000000002 12.0291999999999994
  5.5581100000000001  6.1522699999999997 11.9731000000000005
  9.4612900000000000  8.5047700000000006 11.7613000000000003
  1.8391599999999999  8.3814899999999994 12.0686000000000000
  4.2947899999999999  8.3897600000000008 11.8788000000000000
  6.8950800000000001  8.3333200000000005 11.8841000000000001
  5.7039600000000004  0.3659090000000000 14.0305999999999997
  8.2390600000000003  0.3659090000000000 14.0305999999999997
  0.6337739999999999  0.3659090000000000 14.0305999999999997
  3.1688700000000001  0.3659090000000000 14.0305999999999997
  6.9715100000000003  2.5613700000000001 14.0305999999999997
  9.5066000000000006  2.5613700000000001 14.0305999999999997
  1.9013199999999999  2.5613700000000001 14.0305999999999997
  4.4364200000000000  2.5613700000000001 14.0305999999999997
  8.2390600000000003  4.7568200000000003 14.0305999999999997
  0.6337739999999999  4.7568200000000003 14.0305999999999997
  3.1688700000000001  4.7568200000000003 14.0305999999999997
  5.7039600000000004  4.7568200000000003 14.0305999999999997
  9.5066000000000006  6.9522800000000000 14.0305999999999997
  1.9013199999999999  6.9522800000000000 14.0305999999999997
  4.4364200000000000  6.9522800000000000 14.0305999999999997
  6.9715100000000003  6.9522800000000000 14.0305999999999997
  6.9715100000000003  1.0977300000000001 16.1005000000000003
  9.5066000000000006  1.0977300000000001 16.1005000000000003
  1.9013199999999999  1.0977300000000001 16.1005000000000003
  4.4364200000000000  1.0977300000000001 16.1005000000000003
  8.2390600000000003  3.2931800000000000 16.1005000000000003
  0.6337739999999999  3.2931800000000000 16.1005000000000003
  3.1688700000000001  3.2931800000000000 16.1005000000000003
  5.7039600000000004  3.2931800000000000 16.1005000000000003
  9.5066000000000006  5.4886400000000002 16.1005000000000003
  1.9013199999999999  5.4886400000000002 16.1005000000000003
  4.4364200000000000  5.4886400000000002 16.1005000000000003
  6.9715100000000003  5.4886400000000002 16.1005000000000003
  0.6337739999999999  7.6840999999999999 16.1005000000000003
  3.1688700000000001  7.6840999999999999 16.1005000000000003
  5.7039600000000004  7.6840999999999999 16.1005000000000003
  8.2390600000000003  7.6840999999999999 16.1005000000000003
  5.5915499999999998  1.7582599999999999 18.1472000000000016
  8.1773500000000006  1.8074699999999999 18.1734000000000009
  0.6350110000000000  1.8460300000000001 18.1588999999999992
  3.0577600000000000  1.8314900000000001 18.1478999999999999
  6.9980900000000004  3.9764800000000000 18.1222999999999992
  9.4886999999999997  3.9609800000000002 18.1229000000000013
  1.8876999999999999  3.9341599999999999 18.0842999999999989
  4.5302699999999998  4.0127699999999997 18.2225999999999999
  8.2809399999999993  6.2047900000000000 18.2276999999999987
  0.6649119999999999  6.2125000000000004 18.1539000000000001
  3.2148099999999999  6.2261499999999996 18.1168000000000013
  5.8365999999999998  6.1889000000000003 18.2094999999999985
  9.5767299999999995  8.5071600000000007 18.2150999999999996
  1.8212699999999999  8.4138000000000002 18.1086999999999989
  4.2055199999999999  8.4383599999999994 18.2145000000000010
  6.9651800000000001  8.4669000000000008 18.1377999999999986
  5.6943000000000001  0.4144700000000000 20.1818999999999988
  8.1862600000000008  0.4534280000000000 20.2081000000000017
  0.5677540000000000  0.3991010000000000 20.2362000000000002
  3.0138099999999999  0.3393930000000000 20.2195999999999998
  7.0506799999999998  2.5602900000000002 20.2252000000000010
  9.4959900000000008  2.6278100000000002 20.2169999999999987
  1.9025399999999999  2.6084999999999998 20.2617000000000012
  4.4593800000000003  2.5983600000000000 20.2638999999999996
  8.2778500000000008  4.7648000000000001 20.3139000000000003
  0.5438980000000000  4.7810100000000002 20.1332999999999984
  3.2264300000000001  4.7641099999999996 20.1827000000000005
  5.7936100000000001  4.5892999999999997 20.2011000000000003
  9.4199199999999994  6.9558600000000004 20.4273999999999987
  1.9334899999999999  6.9744000000000002 20.1590999999999987
  4.4986800000000002  6.9771200000000002 20.2405000000000008
  6.9038899999999996  7.0192899999999998 20.1988999999999983
  7.2980499999999999  1.4811200000000000 24.2474999999999987
  6.8363600000000000  2.2484500000000001 23.7652999999999999
  8.1751900000000006  1.3908000000000000 23.8813999999999993
  8.8560400000000001  8.7162600000000001  2.3846799999999999
  8.4350100000000001 -0.3677640000000000  3.1750900000000000
  8.1800300000000004  0.5696990000000000  1.9078599999999999
  1.3187800000000001  6.4697600000000000  2.2657400000000001
  1.2945400000000000  6.2019599999999997 24.0608000000000004
  1.6565200000000000  6.9239499999999996  3.0510799999999998
 10.0708000000000002  5.5917599999999998 25.7549999999999990
  9.5191099999999995  4.8166599999999997 25.7954000000000008
  9.5127500000000005  6.4095599999999999 25.6396000000000015
  1.4929500000000000  5.7776699999999996 27.8936999999999991
  0.8589120000000000  5.9960199999999997 27.1716000000000015
  1.1374800000000000  4.9589200000000000 28.3518000000000008
  1.8033699999999999  0.8939350000000000 28.7637000000000000
  9.8950200000000006  4.5710499999999996 29.8075000000000010
  1.7844800000000001  0.0669525000000000 29.3309999999999995
  7.3821099999999999  6.8532099999999998 23.3975000000000009
  7.3797300000000003  2.2755999999999998  1.1862200000000001
  7.9620400000000000  7.2673500000000004 24.0161000000000016
 -0.0198898000000000  3.7831899999999998 29.3240000000000016
  7.2341699999999998  5.0792900000000003 27.6900000000000013
  0.7400400000000000  3.3801000000000001 29.8820000000000014
  4.9421400000000002  7.6460999999999997 28.7358000000000011
  4.9271300000000000  6.8512199999999996 28.1136000000000017
  3.6782599999999999  6.5476599999999996 23.8052999999999990
  4.5187600000000003  6.1930600000000000 24.0618000000000016
  5.1154000000000002  6.8870699999999996 23.6505000000000010
  5.4829800000000004  5.3245300000000002  7.7641000000000000
  7.8061199999999999  5.8593000000000002 27.6883000000000017
  8.7125900000000005  5.4822899999999999 27.5684000000000005
  5.1192799999999998  4.6429299999999998 23.7613999999999983
  9.0862999999999996  6.2360300000000004  0.5816030000000000
  8.4095099999999992  6.4416099999999998 30.0641999999999996
  9.1897400000000005  7.0564099999999996  1.1001700000000001
  7.1303799999999997  1.3612200000000001  1.0756800000000000
  1.0207900000000001  0.9649400000000000 28.1705000000000005
  6.1473599999999999  1.4112499999999999  1.1106100000000001
  8.8364100000000008  7.0984699999999998  6.8034400000000002
  8.9177400000000002  6.1671500000000004  6.6626000000000003
  8.0546799999999994  7.2412099999999997  7.3955099999999998
  1.6093299999999999  6.7130299999999998 23.3861999999999988
  7.7588299999999997  7.2032800000000003 22.5411999999999999
  1.7167699999999999  6.1423800000000002 22.6430000000000007
  3.6968999999999999  2.0890300000000002 26.9329000000000001
  3.0366700000000000  1.5682600000000000 27.4137999999999984
  4.3797600000000001  1.1712000000000000  1.2549999999999999
  4.4271099999999999  0.9153800000000000  2.1898499999999999
  3.5638700000000001  1.6199399999999999  1.0754800000000000
  2.4186500000000000  3.8833400000000000 23.0717999999999996
  3.3514400000000002  3.7762500000000001 23.1191999999999993
  1.9506399999999999  3.0590999999999999 22.7954000000000008
  9.9628599999999992  1.8322300000000000 23.6499999999999986
  0.4448310000000000  1.5447700000000000 24.3653000000000013
 -0.5222610000000000  2.6720100000000002 23.8157999999999994
  3.4447800000000002  3.0270899999999998 26.9271999999999991
  5.2239100000000001  4.7696500000000004  6.9927299999999999
  5.7785200000000003  3.9882900000000001  7.1289999999999996
  8.0551200000000005  8.1412399999999998  5.5103099999999996
  7.5416400000000001  8.7270099999999999  4.8696700000000002
  7.4134799999999998  0.8437380000000000  5.3234399999999997
  5.2552399999999997  7.3024199999999997 29.5979999999999990
  4.5784399999999996  5.4848499999999998  4.4998300000000002
  4.9261400000000002  5.3697400000000002  5.4123999999999999
  5.2465999999999999  4.9584700000000002  3.9595899999999999
  5.2616399999999999  3.7286899999999998 23.4655999999999985
  5.7131400000000001  3.8151999999999999 22.6173999999999999
  4.4282899999999996  4.1728699999999996  0.2426600000000000
  5.0646100000000001  3.6699400000000000  0.6767930000000000
  6.0111400000000001  2.3417200000000000 27.4979000000000013
  6.3356199999999996  3.2597499999999999 27.6602999999999994
  4.3189599999999997  0.6186720000000000  4.2266000000000004
  5.4904299999999999  3.8133300000000001 27.7799000000000014
  4.3063799999999999  1.5573500000000000  4.4726900000000001
  3.5621299999999998  3.9041000000000001  0.5523310000000000
  3.3370799999999998  1.6575599999999999  4.7778499999999999
  2.0065499999999998  0.4818960000000000 25.2322999999999986
  2.2657500000000002  8.6324299999999994 24.5906999999999982
  2.8432599999999999  0.8987500000000000 25.4085000000000001
  6.6275899999999996  2.3938799999999998  6.6308900000000000
  6.6299999999999999  2.2258800000000001  7.5919100000000004
  8.1726200000000002  4.8124099999999999  1.5697200000000000
  7.5989000000000004  4.1118899999999998  1.8283000000000000
  5.8625699999999998  0.2923210000000000 23.4520000000000017
  4.9357499999999996  0.1609470000000000 23.2622999999999998
  5.8247799999999996  2.0489999999999999  6.2252099999999997
  4.8750200000000001 -0.1279400000000000 22.3389999999999986
  2.1104300000000000  8.1625099999999993  4.2318600000000002
  1.7213499999999999  8.1336200000000005  5.1303799999999997
  1.7376100000000001  0.1553440000000000  3.7362899999999999
  1.8560000000000001  2.0217700000000001 -0.0558434000000000
  1.9703500000000000  2.7606799999999998  0.6086650000000000
  8.9374699999999994  4.0011599999999996  7.7031799999999997
  1.6594899999999999  2.3340700000000001  1.4157800000000000
  9.2806200000000008  4.4446500000000002  6.9261499999999998
  0.0797096000000000  4.4732599999999998  7.1386700000000003
  6.2198500000000001  6.7710999999999997  1.5831200000000001
  7.4368999999999996 -0.0707984000000000 28.8882000000000012
  6.9809700000000001  0.4767500000000000 29.5679000000000016
  6.7413200000000000  8.2579300000000000 28.4271999999999991
  8.0609699999999993  3.3118500000000002  4.3959700000000002
  8.9556299999999993  3.4780099999999998  4.5320999999999998
  3.2801000000000000  7.5792299999999999 29.2279000000000018
  2.4688200000000000  7.4771900000000002 29.8057000000000016
  3.3343400000000001  4.7227499999999996  3.7330500000000000
  1.9286000000000001  6.9470099999999997 29.1660000000000004
  2.5636100000000002  4.4076100000000000  3.1513700000000000
  7.4817000000000000  3.2857900000000000  5.1564800000000002
  2.0578099999999999  5.1599399999999997  2.8252700000000002
  4.1498799999999996  5.3209299999999997 27.1182000000000016
  4.3686299999999996  5.5258500000000002 26.2032999999999987
  3.2213500000000002  5.6851200000000004 27.3351000000000006
  1.8325000000000000  5.2919000000000000  7.1726099999999997
  7.9130300000000000  3.9088400000000001  2.7430099999999999
  1.4881500000000001  3.5570800000000000  4.0768500000000003
  0.7080610000000001  3.1343299999999998  4.5087400000000004
  6.5437599999999998  0.7727889999999999 25.7074999999999996
  0.9467340000000000  2.9480400000000002  5.4011399999999998
  6.0603600000000002  0.3738980000000000 26.4328000000000003
  2.4473300000000000  5.2517399999999999  7.8962100000000000
  5.1472400000000000  0.5443830000000000 26.3868000000000009
  1.3315200000000000  7.9323100000000002  6.6049300000000004
  1.8450599999999999 -0.5137460000000000  7.3585500000000001
  0.3782860000000000  7.7924499999999997  6.8161300000000002
  1.8828199999999999  6.8771699999999996  1.5824000000000000
  0.8776950000000000  1.9416300000000000  3.4081700000000001
  1.0445300000000000  1.2648800000000000  2.6977300000000000
  8.1286199999999997  2.7556699999999998 25.5427000000000000
  0.1995490000000000  0.7638070000000000  2.5040600000000000
  8.5699900000000007  3.2744800000000001 26.2570000000000014
  7.7177300000000004  3.2574999999999998 26.8261000000000003
  5.7812400000000004  6.4966400000000002  0.7699190000000000
  5.2017100000000003  5.7585800000000003  0.8666350000000000
  1.6096900000000001  6.2887000000000004  7.1124400000000003
  8.1906499999999998  4.0884600000000004 23.5254000000000012
  8.5293100000000006  4.1708200000000000 22.5892000000000017
  7.8177599999999998  4.9151600000000002 23.6374999999999993
  9.7161899999999992  0.9499940000000000 27.3414999999999999
  8.9063599999999994  0.7955610000000000 27.8561000000000014
  9.4763000000000002  1.8378600000000000 27.0337999999999994
  2.7725399999999998  1.8081799999999999  7.3843699999999997
  3.4044300000000001  2.5304000000000002  7.4321400000000004
  1.9978600000000000  2.2720899999999999  7.5949999999999998
  8.6906400000000001  7.7802199999999999 25.6680999999999990
  8.0274500000000000  7.7515099999999997 26.3750000000000000
  9.2261900000000008  8.5277499999999993 25.9795000000000016
  5.4352200000000002  7.8623399999999997  3.2169599999999998
  6.2107799999999997  7.9064600000000000  3.8396300000000001
  4.8301999999999996  7.2283099999999996  3.6278199999999998
