Cu  O  H  O  H  O  H  O  H  O  H  O  H  O  H  O  H  O  H  O  H  O  H  O  H  O  H  O  H  O  H  O  H  O  H  O  H  O  H  O  H  O  H  O  H  O  H  O  H  O  H  O  H  O  H  O  H  O  H  O  H  O  H  O  H  O  H  O  H  O  H  O  H  O  H  O  H  O  H  O  H  O  H  O  H  O  H  O  H  O  H  O  H  O  H  O  H  O  H  O  H 
 1.0000000000000000
    10.1403771778044529    0.0000000000000000    0.0000000000000000
     0.0000000000000000    8.7818242399346058    0.0000000000000000
     0.0000000000000000    0.0000000000000000   30.1311271579000000
 Cu  O   H   O   H   O   H   O   H   O   H   O   H   O   H   O   H   O   H   O   H   O   H   O   H   O   H   O   H   O   H   O   H   O   H   O   H   O   H   O   H   O   H   O   H   O   H   O   H   O   H   O   H   O   H   O   H   O   H   O   H   O   H   O   H   O   H   O   H   O   H   O   H   O   H   O   H   O   H   O   H   O   H   O   H   O   H   O   H   O   H   O   H   O   H   O   H   O   H   O   H  
  96   1   2   1   2   1   2   1   2   1   2   1   2   1   2   1   2   1   2   1   2   1   2   1   2   1   2   1   2   1   2   1   1   1   2   1   2   1   3   1   2   1   2   1   2   1   1   1   2   1   2   1   2   1   2   1   2   1   1   1   2   1   3   1   2   1   2   1   2   1   2   1   2   1   2   1   2   1   2   1   2   1   2   1   4   1   2   1   1   1   2   1   2   1   2   1   2   1   2   1   2
Cartesian
  6.8175999999999997  1.1684200000000000  9.7903500000000001
  9.3309499999999996  1.1742400000000000  9.8534500000000005
  1.7761400000000001  1.1072400000000000  9.9336400000000005
  4.4055700000000000  0.9483070000000000 10.0421999999999993
  8.0999700000000008  3.3518500000000002  9.7686299999999999
  0.3953890000000000  3.3022700000000000  9.8436800000000009
  3.2573799999999999  3.1536200000000001  9.9780300000000004
  5.6665000000000001  3.2641600000000000  9.9706299999999999
  9.4539899999999992  5.5672699999999997  9.8267600000000002
  1.9241299999999999  5.4739599999999999 10.0825999999999993
  4.4493200000000002  5.3638000000000003  9.8862100000000002
  6.9498899999999999  5.5044599999999999  9.7763600000000004
  0.5874310000000000  7.8477899999999998  9.8825699999999994
  3.1177600000000001  7.7316700000000003  9.7822800000000001
  5.6828799999999999  7.7427599999999996  9.9841099999999994
  8.2074700000000007  7.7564900000000003  9.9409100000000006
  5.6482799999999997  1.7984300000000000 12.1109000000000009
  8.1140200000000000  1.9685299999999999 11.9114000000000004
  0.6095699999999999  1.7851500000000000 11.9361999999999995
  3.1255199999999999  1.7975200000000000 11.9807000000000006
  6.8772300000000000  3.9670200000000002 11.9240999999999993
  9.5425100000000000  4.1233800000000000 11.9612999999999996
  1.8604799999999999  4.0050400000000002 12.0305000000000000
  4.3929900000000002  4.1678899999999999 12.0038000000000000
  8.2246400000000008  6.2282700000000002 11.8399999999999999
  0.5979960000000000  6.3168899999999999 11.9278999999999993
  3.2233600000000000  6.2856199999999998 11.9819999999999993
  5.7134000000000000  6.1922499999999996 11.9298000000000002
  9.4720999999999993  8.4623799999999996 12.0005000000000006
  1.9137100000000000  8.4177099999999996 11.8596000000000004
  4.4282100000000000  8.3354099999999995 12.0449999999999999
  6.8803700000000001  8.3840100000000000 12.0449999999999999
  5.7039600000000004  0.3659090000000000 14.0305999999999997
  8.2390600000000003  0.3659090000000000 14.0305999999999997
  0.6337739999999999  0.3659090000000000 14.0305999999999997
  3.1688700000000001  0.3659090000000000 14.0305999999999997
  6.9715100000000003  2.5613700000000001 14.0305999999999997
  9.5066000000000006  2.5613700000000001 14.0305999999999997
  1.9013199999999999  2.5613700000000001 14.0305999999999997
  4.4364200000000000  2.5613700000000001 14.0305999999999997
  8.2390600000000003  4.7568200000000003 14.0305999999999997
  0.6337739999999999  4.7568200000000003 14.0305999999999997
  3.1688700000000001  4.7568200000000003 14.0305999999999997
  5.7039600000000004  4.7568200000000003 14.0305999999999997
  9.5066000000000006  6.9522800000000000 14.0305999999999997
  1.9013199999999999  6.9522800000000000 14.0305999999999997
  4.4364200000000000  6.9522800000000000 14.0305999999999997
  6.9715100000000003  6.9522800000000000 14.0305999999999997
  6.9715100000000003  1.0977300000000001 16.1005000000000003
  9.5066000000000006  1.0977300000000001 16.1005000000000003
  1.9013199999999999  1.0977300000000001 16.1005000000000003
  4.4364200000000000  1.0977300000000001 16.1005000000000003
  8.2390600000000003  3.2931800000000000 16.1005000000000003
  0.6337739999999999  3.2931800000000000 16.1005000000000003
  3.1688700000000001  3.2931800000000000 16.1005000000000003
  5.7039600000000004  3.2931800000000000 16.1005000000000003
  9.5066000000000006  5.4886400000000002 16.1005000000000003
  1.9013199999999999  5.4886400000000002 16.1005000000000003
  4.4364200000000000  5.4886400000000002 16.1005000000000003
  6.9715100000000003  5.4886400000000002 16.1005000000000003
  0.6337739999999999  7.6840999999999999 16.1005000000000003
  3.1688700000000001  7.6840999999999999 16.1005000000000003
  5.7039600000000004  7.6840999999999999 16.1005000000000003
  8.2390600000000003  7.6840999999999999 16.1005000000000003
  5.7157600000000004  1.8964799999999999 18.1564000000000014
  8.2818299999999994  1.8122100000000001 18.1098999999999997
  0.6651840000000000  1.9531099999999999 18.2256000000000000
  3.1959100000000000  1.8751199999999999 18.1617999999999995
  6.9460499999999996  4.0447100000000002 18.1719000000000008
  9.4351800000000008  4.0330800000000000 18.1311000000000000
  1.9043900000000000  3.9993099999999999 18.1475000000000009
  4.4811199999999998  4.0423200000000001 18.2167999999999992
  8.2510300000000001  6.0481400000000001 18.1407999999999987
  0.5756070000000000  6.1858300000000002 18.2028999999999996
  3.2522899999999999  6.2737200000000000 18.1252999999999993
  5.6734400000000003  6.1780499999999998 18.2475999999999985
  9.5808300000000006  8.4172999999999991 18.1626000000000012
  1.9130700000000000  8.4117899999999999 18.2520999999999987
  4.5690600000000003  8.3197100000000006 18.1317999999999984
  7.0529500000000001  8.3751200000000008 18.2356000000000016
  5.6596900000000003  0.4444490000000000 20.2696000000000005
  8.1381099999999993  0.3952880000000000 20.2286000000000001
  0.4895130000000000  0.4336960000000000 20.3033000000000001
  3.0367899999999999  0.4263240000000000 20.1512999999999991
  6.9442700000000004  2.6092200000000001 20.2350999999999992
  9.4924999999999997  2.5276700000000001 20.2152999999999992
  1.9247900000000000  2.6058400000000002 20.3153000000000006
  4.3604200000000004  2.5134099999999999 20.3852000000000011
  8.2043499999999998  4.6476699999999997 20.3670000000000009
  0.5223600000000000  4.7171799999999999 20.2042000000000002
  3.2235399999999998  4.7999900000000002 20.1408999999999985
  5.7197100000000001  4.7497900000000000 20.1278000000000006
  9.4971499999999995  6.8954500000000003 20.2303999999999995
  2.0496400000000001  6.8544200000000002 20.0975000000000001
  4.5336200000000000  7.0974300000000001 20.3608000000000011
  7.0280600000000000  6.8161399999999999 20.2846000000000011
  0.9348150000000000  0.1231900000000000 22.5812999999999988
  1.8885500000000000 -0.0563866000000000 22.5156999999999989
  0.9059570000000000  0.9796470000000000 23.1970999999999989
  1.9631600000000000  3.9616600000000002 26.5699000000000005
  2.6568900000000002  4.6067299999999998 26.6491000000000007
  1.8918699999999999  3.6179600000000001 25.6569000000000003
  6.0000799999999996  7.2789299999999999  5.7743200000000003
  5.2724700000000002  1.2065600000000001 29.7613999999999983
  5.1548299999999996  7.2778400000000003  6.3431300000000004
  1.2882499999999999  6.7761100000000001 24.7327000000000012
  0.5920590000000000  6.1433600000000004 24.3342999999999989
  1.3119400000000001  7.5009100000000002 24.1082000000000001
  4.5185500000000003  5.1737500000000001 27.3662999999999990
  5.3253899999999996  5.0173100000000002 26.8581000000000003
  4.0701200000000002  5.9996299999999998 27.0567999999999991
  5.8381299999999996  5.6117999999999997 23.7081000000000017
  4.0437500000000002  3.4040599999999999 24.4648000000000003
  4.8622600000000000  5.5574800000000000 23.7898999999999994
  3.3068499999999998  5.0151100000000000 23.8191999999999986
  6.3525600000000004  5.7765300000000002  0.4517010000000000
  2.9748999999999999  4.5672699999999997 22.9868999999999986
  4.5578599999999998  2.5897899999999998 24.5990000000000002
  0.9167660000000000  0.3517620000000000  7.8994999999999997
  5.4115399999999996  2.6760400000000000 24.1299999999999990
  4.9262100000000002  4.9745400000000002 30.0167999999999999
  4.2843200000000001  5.6949199999999998  0.1020440000000000
  7.3952299999999997  5.1022999999999996 26.0378000000000007
  7.8091100000000004  5.9153700000000002 25.7303999999999995
  7.1772900000000002  6.2511500000000000 25.0345000000000013
  8.5993300000000001  7.4858000000000002  5.7200199999999999
  1.0927400000000000  0.4042750000000000  6.9591900000000004
  0.3540290000000000  8.6107999999999993  6.6963299999999997
  3.7867700000000002  0.8462930000000000 23.5701000000000001
  9.3537700000000008  7.8754499999999998 27.0174999999999983
 10.0896000000000008  7.6673200000000001 27.5976999999999997
  8.9537999999999993  6.9893999999999998 26.7227999999999994
  7.0047400000000000  6.2752200000000000  0.9544000000000000
  6.1480499999999996  5.6466700000000003 22.7487999999999992
  7.4477599999999997  6.8849200000000002  0.3298030000000000
  9.9049300000000002  5.1183100000000001 23.8745000000000012
  9.0455299999999994  5.2167500000000002 24.2537999999999982
  9.8853600000000004  5.3710399999999998 22.8855000000000004
  5.7920699999999998  0.8399820000000000 29.0325999999999986
  2.6139100000000002  5.6781400000000000 24.0118000000000009
  6.5453900000000003  0.5078859999999999 29.4701999999999984
  8.5380199999999995  8.3127899999999997 29.6106000000000016
  8.9905500000000007  8.2858699999999992 28.7709000000000010
  7.7861599999999997  1.7045399999999999  4.4906199999999998
  6.9730200000000000  2.3085800000000001  4.6049600000000002
  7.4424900000000003  0.8580550000000000  4.1504200000000004
  4.1514499999999996  2.3825400000000001  0.2679960000000000
  3.4895600000000000  2.1813500000000001 29.7026000000000003
  4.3436199999999996  3.4208400000000001 30.3369999999999997
  6.4860499999999996  3.8161299999999998  5.5671299999999997
  7.2969600000000003  4.2067899999999998  5.9699799999999996
  6.0312500000000000  3.3198099999999999  6.2452300000000003
  9.1329399999999996  8.5995799999999996 30.3001000000000005
  9.4314199999999992  7.7225000000000001  5.3212200000000003
  9.7429799999999993  6.8466399999999998  4.9577200000000001
  0.6459510000000001  2.3875099999999998  5.5956299999999999
  0.7926630000000000  3.1554600000000002  6.2122700000000002
  1.0491200000000001  2.6267499999999999  6.9811699999999997
  4.8291800000000000  4.9798499999999999 29.0260999999999996
  4.9251399999999999  2.0330599999999999  7.1142099999999999
  4.2119700000000000  2.6210900000000001  7.4001099999999997
  5.3422999999999998  1.6818200000000001  7.9009299999999998
  3.5819500000000000  8.6875300000000006 23.3414999999999999
  3.8158300000000001  8.4891799999999993 22.3481999999999985
  0.3841580000000000  0.3274610000000000  1.1037800000000000
  0.1626910000000000  0.7707410000000000  1.9833600000000000
  2.0813199999999998  2.0184299999999999  2.7545700000000002
  2.9735399999999998  1.7473900000000000  2.5128200000000001
  2.1817199999999999  7.8895600000000004 27.9055999999999997
  3.1238199999999998  2.0405300000000000  1.6562300000000001
  1.6112800000000000  7.7691400000000002 28.7012999999999998
  1.2585200000000001 -0.0022574000000000  1.3499800000000000
  2.0989800000000001  7.6859099999999998 29.4956999999999994
  8.6377400000000009  4.4031000000000002  1.9816700000000000
  8.0348299999999995  3.8966699999999999  2.5118900000000002
  8.1161600000000007  5.1811600000000002  1.5757800000000000
  6.9796899999999997  7.9118300000000001  3.4931000000000001
  6.4166499999999997  7.5005800000000002  4.1779599999999997
  7.9593600000000002  1.0090600000000001 25.1613000000000007
  8.5189699999999995  1.4411400000000001 25.8081999999999994
  2.9012199999999999  7.8533799999999996  4.7131900000000000
  2.5593699999999999  8.0857899999999994  3.8481900000000002
  7.1051000000000002  7.3297200000000000  2.7560899999999999
  2.7910200000000001  0.2188140000000000  3.5525699999999998
  0.8305380000000000  2.3050400000000000 24.3406999999999982
 10.2689000000000004  2.0395200000000000 24.9363999999999990
  0.3672300000000000  2.9250799999999999 23.7567999999999984
  7.5292800000000000  2.8169700000000000 22.6599000000000004
  7.2016700000000000  3.0274299999999998 23.5217999999999989
  2.1829600000000000  4.4045399999999999  5.2288399999999999
  7.0593300000000001  4.0525799999999998 23.4366999999999983
  3.0257200000000002  4.7735799999999999  5.0385600000000004
  2.9721299999999999  5.4124800000000004  5.7747999999999999
  0.6428870000000000  5.9457700000000004 29.1285999999999987
  5.0703100000000001  0.7244510000000000 26.4451000000000001
  4.8394000000000004  1.5417200000000000 25.9269999999999996
  5.3525700000000001  1.0128200000000001 27.3399000000000001
  8.4984900000000003  4.4536800000000003  6.8728499999999997
  8.6087600000000002  4.8066399999999998  7.7595200000000002
  1.6141099999999999  1.0318600000000000 28.3954999999999984
  1.7961000000000000  1.9099400000000000 28.7255000000000003
  3.0080300000000002  6.4013600000000004  1.4118700000000000
  1.8219700000000001  2.5167500000000000 27.9701999999999984
  2.9682499999999998  7.1557899999999997  0.7686320000000000
  9.3876700000000000  4.2488200000000003  6.5749399999999998
  3.7960099999999999  7.6116000000000001  1.0279700000000001
  7.5712599999999997  0.1956530000000000  6.8882599999999998
  7.8646200000000004  0.1289550000000000  7.8274299999999997
  8.0005600000000001  0.9509600000000000  6.4581099999999996
  3.3823400000000001  7.5239900000000004 26.7504999999999988
  8.8964800000000004  0.6607000000000000 26.1855000000000011
  7.5156599999999996  3.5752500000000000 27.5896000000000008
  6.9964199999999996  3.5839699999999999 26.7409999999999997
  0.2505530000000000  0.2196400000000000  4.0073400000000001
  7.2361500000000003  2.7235800000000001 26.3590000000000018
  0.0674483000000000  1.1434200000000001  3.7446899999999999
  2.9278499999999998  7.3899200000000000 25.8509999999999991
  9.3004200000000008  1.2614700000000001  3.9474200000000002
  3.4148999999999998  6.8805800000000001  7.0288700000000004
  3.2329900000000000  6.4421600000000003  7.8948200000000002
  2.7664599999999999  7.6294500000000003  7.0364500000000003
  6.5418000000000003  7.8595899999999999  6.3418999999999999
  7.8433700000000002  3.5776699999999999  0.2345670000000000
  8.0356699999999996  3.5527099999999998 29.3960000000000008
  0.1777200000000000  3.7620499999999999  1.4082300000000001
  8.8246599999999997  4.1047900000000004 29.2874000000000017
  1.1376800000000000  3.5909399999999998  1.1340699999999999
  1.1544399999999999  2.6987600000000000  0.7439540000000000
  0.1712080000000000  5.2835200000000002 28.5884000000000000
  0.8133450000000000  4.7955800000000002 28.0026000000000010
  3.9514999999999998  8.3169400000000007 26.5858999999999988
  3.2944599999999999  5.0104899999999999  2.4646699999999999
  2.7336700000000000  4.2613099999999999  2.3160900000000000
  3.1740699999999999  4.9498699999999998  3.4876499999999999
  7.0753899999999996  8.6585300000000007 24.1478999999999999
  6.1629800000000001  8.8525799999999997 24.4004000000000012
  7.0728700000000000  8.5862700000000007 23.2024000000000008
  5.9230499999999999  4.3145100000000003  3.0694599999999999
  5.0309200000000001  4.5669300000000002  2.6861299999999999
  5.8165800000000001  4.1422699999999999  4.0454400000000001
  5.6005000000000003  0.3539280000000000  1.5996999999999999
  5.9239400000000000  8.7481100000000005  2.4117400000000000
  5.1345200000000002  1.1407200000000000  1.8070800000000000
  0.3970220000000000  5.4687700000000001  3.6451699999999998
  9.8114200000000000  5.0309100000000004  3.1846299999999998
  1.0019700000000000  5.7899599999999998  2.9169600000000000
