Cu  O  H  O  H  O  H  O  H  O  H  O  H  O  H  O  H  O  H  O  H  O  H  O  H  O  H  O  H  O  H  O  H  O  H  O  H  O  H  O  H  O  H  O  H  O  H  O  H  O  H  O  H  O  H  O  H  O  H  O  H  O  H  O  H  O  H  O  H  O  H  O  H  O  H  O  H  O  H  O  H  O  H  O  H  O  H  O  H  O  H  O  H  O  H  O  H  O  H  O  H 
 1.0000000000000000
    10.1403771778044529    0.0000000000000000    0.0000000000000000
     0.0000000000000000    8.7818242399346058    0.0000000000000000
     0.0000000000000000    0.0000000000000000   30.1311271579000000
 Cu  O   H   O   H   O   H   O   H   O   H   O   H   O   H   O   H   O   H   O   H   O   H   O   H   O   H   O   H   O   H   O   H   O   H   O   H   O   H   O   H   O   H   O   H   O   H   O   H   O   H   O   H   O   H   O   H   O   H   O   H   O   H   O   H   O   H   O   H   O   H   O   H   O   H   O   H   O   H   O   H   O   H   O   H   O   H   O   H   O   H   O   H   O   H   O   H   O   H   O   H  
  96   1   2   1   2   1   2   1   2   1   2   1   2   1   2   1   2   1   2   1   2   1   2   1   2   1   2   1   2   1   2   1   1   1   2   1   2   1   3   1   2   1   2   1   2   1   1   1   2   1   2   1   2   1   2   1   2   1   1   1   2   1   3   1   2   1   2   1   2   1   2   1   2   1   2   1   2   1   2   1   2   1   2   1   4   1   2   1   1   1   2   1   2   1   2   1   2   1   2   1   2
Cartesian
  7.0286700000000000  1.1078500000000000  9.8845299999999998
  9.5997800000000009  0.9841900000000000  9.6668500000000002
  1.9246700000000001  0.9780370000000000  9.6249300000000009
  4.3996100000000000  1.1236200000000001  9.8666099999999997
  8.3474299999999992  3.1589299999999998  9.8427299999999995
  0.7228620000000000  3.2464400000000002  9.8592700000000004
  3.3239700000000001  3.2540700000000000  9.8431099999999994
  5.7666500000000003  3.2641300000000002  9.8390599999999999
  9.4884900000000005  5.4972300000000001  9.9202600000000007
  1.8503499999999999  5.3212200000000003  9.8586399999999994
  4.4336200000000003  5.6540699999999999  9.9138800000000007
  7.0142699999999998  5.4161200000000003  9.8680800000000009
  0.5880649999999999  7.6624699999999999  9.7609800000000000
  3.2580600000000000  7.8320499999999997  9.8869699999999998
  5.6542300000000001  7.8356800000000000  9.8685200000000002
  8.1904299999999992  7.6615500000000001  9.9683899999999994
  5.6745799999999997  1.8952199999999999 11.7863000000000007
  8.2846299999999999  1.8131100000000000 11.9443999999999999
  0.7432920000000000  1.6838299999999999 11.8994000000000000
  3.2057099999999998  1.8337000000000001 11.8213000000000008
  7.0944500000000001  3.9716999999999998 11.8003999999999998
  9.6913900000000002  3.9119299999999999 11.9014000000000006
  2.0274399999999999  4.0000700000000000 11.9468999999999994
  4.5309999999999997  4.0530600000000003 11.9688999999999997
  8.2157599999999995  6.2500299999999998 11.9547000000000008
  0.6546700000000000  6.0614100000000004 11.8925999999999998
  3.1716700000000002  6.2127100000000004 11.8872999999999998
  5.7203299999999997  6.2605500000000003 12.0282999999999998
  9.5464400000000005  8.3275699999999997 11.9040999999999997
  2.0491100000000002  8.3519699999999997 11.9718999999999998
  4.5276800000000001  8.4287299999999998 12.0221999999999998
  7.0459600000000000  8.4794800000000006 11.9780999999999995
  5.7039600000000004  0.3659090000000000 14.0305999999999997
  8.2390600000000003  0.3659090000000000 14.0305999999999997
  0.6337739999999999  0.3659090000000000 14.0305999999999997
  3.1688700000000001  0.3659090000000000 14.0305999999999997
  6.9715100000000003  2.5613700000000001 14.0305999999999997
  9.5066000000000006  2.5613700000000001 14.0305999999999997
  1.9013199999999999  2.5613700000000001 14.0305999999999997
  4.4364200000000000  2.5613700000000001 14.0305999999999997
  8.2390600000000003  4.7568200000000003 14.0305999999999997
  0.6337739999999999  4.7568200000000003 14.0305999999999997
  3.1688700000000001  4.7568200000000003 14.0305999999999997
  5.7039600000000004  4.7568200000000003 14.0305999999999997
  9.5066000000000006  6.9522800000000000 14.0305999999999997
  1.9013199999999999  6.9522800000000000 14.0305999999999997
  4.4364200000000000  6.9522800000000000 14.0305999999999997
  6.9715100000000003  6.9522800000000000 14.0305999999999997
  6.9715100000000003  1.0977300000000001 16.1005000000000003
  9.5066000000000006  1.0977300000000001 16.1005000000000003
  1.9013199999999999  1.0977300000000001 16.1005000000000003
  4.4364200000000000  1.0977300000000001 16.1005000000000003
  8.2390600000000003  3.2931800000000000 16.1005000000000003
  0.6337739999999999  3.2931800000000000 16.1005000000000003
  3.1688700000000001  3.2931800000000000 16.1005000000000003
  5.7039600000000004  3.2931800000000000 16.1005000000000003
  9.5066000000000006  5.4886400000000002 16.1005000000000003
  1.9013199999999999  5.4886400000000002 16.1005000000000003
  4.4364200000000000  5.4886400000000002 16.1005000000000003
  6.9715100000000003  5.4886400000000002 16.1005000000000003
  0.6337739999999999  7.6840999999999999 16.1005000000000003
  3.1688700000000001  7.6840999999999999 16.1005000000000003
  5.7039600000000004  7.6840999999999999 16.1005000000000003
  8.2390600000000003  7.6840999999999999 16.1005000000000003
  5.7177300000000004  1.7650800000000000 18.2344000000000008
  8.1990400000000001  1.6747799999999999 18.1999999999999993
  0.5776450000000000  1.6496500000000001 18.1917000000000009
  3.1044299999999998  1.9245900000000000 18.0865000000000009
  7.0756199999999998  3.9327000000000001 18.1650999999999989
  9.5372299999999992  3.9449200000000002 18.2632000000000012
  1.9072000000000000  4.0303199999999997 18.1593000000000018
  4.5110200000000003  3.9214500000000001 18.0980999999999987
  8.1922800000000002  6.2151199999999998 18.1742999999999988
  0.5991870000000000  6.1526800000000001 18.2983000000000011
  3.2340200000000001  6.2337999999999996 18.0932999999999993
  5.6577500000000001  6.2158199999999999 18.0853999999999999
  9.5175900000000002  8.2724899999999995 18.1866999999999983
  1.9326600000000000  8.2931100000000004 18.1726999999999990
  4.3832800000000001  8.5051000000000005 18.1716000000000015
  6.8746600000000004  8.2625200000000003 18.2552999999999983
  5.7013600000000002  0.2675680000000000 20.3067999999999991
  8.2475000000000005  0.3725170000000000 20.2250000000000014
  0.8026180000000001  0.2732170000000000 20.1422999999999988
  3.2434200000000000  0.2785500000000000 20.3251999999999988
  6.9681699999999998  2.5105200000000001 20.1205999999999996
  9.5013900000000007  2.4003500000000000 20.1967999999999996
  1.8220400000000001  2.4587200000000000 20.1936000000000000
  4.2774000000000001  2.5050599999999998 20.2427999999999990
  8.2764199999999999  4.7058299999999997 20.2953000000000010
  0.6553530000000000  4.6676399999999996 20.2037000000000013
  3.2298800000000001  4.7625599999999997 20.2405000000000008
  5.6296499999999998  4.7148500000000002 20.0948999999999991
  9.5395699999999994  6.9075400000000000 20.2985000000000007
  1.9816100000000001  6.8893300000000002 20.2691000000000017
  4.5216300000000000  6.9164399999999997 20.1992000000000012
  6.9819000000000004  6.8701400000000001 20.3365000000000009
  2.9895200000000002  8.8405100000000001 25.7142000000000017
  2.7314799999999999  8.7094600000000000 24.8038999999999987
  2.3863699999999999  0.7939120000000000 25.9469999999999992
  1.9517300000000000  2.3657800000000000  0.3022010000000000
  1.7538400000000001  1.4249600000000000  0.2847970000000000
  2.2097300000000000  2.5218099999999999 29.5146000000000015
  4.3302500000000004  8.0639400000000006 29.6413000000000011
  9.9870900000000002  7.5998700000000001 24.4514999999999993
  3.5392100000000002  7.6575499999999996 29.2486999999999995
  5.7762900000000004  3.1697400000000000 24.6225999999999985
  6.5740999999999996  3.3427699999999998 24.0991999999999997
  5.8127599999999999  2.2053799999999999 24.8754999999999988
  0.6666990000000000  5.6365600000000002 23.6202000000000005
  0.5650539999999999  4.7458700000000000 23.9753000000000007
  0.1944800000000000  5.6017299999999999 22.7886999999999986
  4.8812899999999999  2.0671400000000002 29.2423000000000002
  9.2611500000000007  1.3017700000000001  2.1491199999999999
  4.5741300000000003  1.1433400000000000 29.4052000000000007
  6.4353600000000002  5.7218700000000000 23.1899000000000015
  1.2557100000000001  5.9523400000000004  2.7073999999999998
  7.0598999999999998  6.1353299999999997 22.5962999999999994
  9.1682699999999997  1.0811700000000000  1.1857100000000000
  5.2076599999999997  4.1012100000000000 26.1234000000000002
  8.4150899999999993  0.4753040000000000  1.1231800000000001
  2.3912399999999998  2.5127600000000001 27.2315000000000005
  3.2566299999999999  2.9246400000000001 27.2130000000000010
  2.3092500000000000  1.0828400000000000 22.5798999999999985
  1.8563799999999999  1.0810599999999999 23.4305999999999983
  1.9877800000000001  1.9825600000000001 23.6768999999999998
  5.8582799999999997  2.9323399999999999  5.7074100000000003
  4.6344799999999999  4.4132600000000002 26.7955000000000005
  5.1063900000000002  4.9242200000000000 27.4211999999999989
  8.5695899999999998  0.0889721000000000 23.2916999999999987
  1.1980500000000001  8.3267799999999994 -0.0560415000000000
  0.9872050000000000  8.4181200000000000  0.8627629999999999
  1.4852099999999999  7.3083000000000000 29.8863999999999983
  1.4939300000000000  5.2878499999999997  1.9979400000000000
  5.7829300000000003  1.9171700000000000 28.9375999999999998
  1.3410700000000000  4.4184099999999997  2.4471599999999998
  3.4946500000000000  5.9163500000000004  6.9366000000000003
  3.4054199999999999  5.6456799999999996  7.9051099999999996
  4.2710400000000002  6.4323300000000003  6.6029400000000003
  9.8902500000000000  8.5561600000000002 24.4451999999999998
  5.5337500000000004  6.0537700000000001 23.1372000000000000
  0.4836310000000000  0.1887210000000000 23.8991000000000007
  7.5531100000000002  2.0528599999999999 27.7592999999999996
  7.6773199999999999  3.0120300000000002 27.9061999999999983
  8.3741299999999992  7.7994899999999996  4.2407000000000004
  9.2648299999999999  7.7284300000000004  3.8302000000000000
  8.1552900000000008  6.8884400000000001  4.6473100000000001
 -0.0073398800000000  3.0560600000000000 25.6153000000000013
 -0.1274200000000000  2.2215600000000002 26.0812999999999988
  9.3367400000000007  3.0246700000000000 25.0256000000000007
  3.0592100000000002  6.7836100000000004 23.5187999999999988
  2.1162200000000002  6.4888100000000000 23.6244000000000014
  3.0428600000000001  7.1460499999999998 22.6170000000000009
  6.7247599999999998  1.9409200000000000 27.2119000000000000
  5.4566400000000002  3.8094000000000001  5.5530700000000000
  5.1318799999999998  4.1460800000000004  6.3870199999999997
  8.4775100000000005  5.0992400000000000  5.5569800000000003
  7.8029200000000003  5.1731999999999996  4.8690300000000004
  7.0104400000000000  4.5870699999999998  5.0118600000000004
  1.9114300000000000  3.1329699999999998 26.6686000000000014
  1.4922000000000000  2.5521300000000000  3.2887499999999998
  1.7164699999999999  2.5371199999999998  4.1995100000000001
  2.0488499999999998  1.8514800000000000  2.8576199999999998
  7.9327300000000003  0.6682140000000000 22.8613999999999997
  7.2231100000000001  8.9420099999999998 22.3937999999999988
  2.1432199999999999  6.0053700000000001 26.8001000000000005
  2.8424999999999998  5.6048999999999998 26.3243000000000009
  6.4409400000000003  6.9054200000000003 27.4998000000000005
  6.0830700000000002  6.4075400000000000 28.2699999999999996
  2.8156900000000000  4.0862699999999998  5.9709099999999999
  6.8680000000000003  6.1276299999999999 28.7646000000000015
  2.2896600000000000  3.3518400000000002  5.8350600000000004
  2.3815599999999999  6.9631499999999997 26.6921999999999997
  1.4307900000000000  3.5204100000000000  6.2944599999999999
  9.5321700000000007  6.7959800000000001 26.7231999999999985
  9.7731499999999993  7.6921700000000000 26.8599999999999994
  0.1505580000000000  6.4280799999999996 26.2975999999999992
  0.8383200000000000  7.6238400000000004  3.5800399999999999
  1.0876999999999999  7.2933000000000003  4.4537800000000001
  3.4552299999999998  5.1592799999999999  3.6533699999999998
  4.0287100000000002  4.4934500000000002  3.2085300000000001
  4.1538100000000000  3.5121600000000002 24.0789000000000009
  3.2659500000000001  3.9569899999999998 23.8571999999999989
  1.6120300000000001  8.2571999999999992  3.4399899999999999
  3.4680399999999998  4.8938100000000002 23.7670999999999992
  6.5340699999999998  1.2576799999999999  5.8267100000000003
  6.7113199999999997  0.7377690000000000  5.0497300000000003
  7.4022399999999999  1.1967200000000000  6.2675599999999996
  8.5026299999999999  4.3521900000000002 29.4146000000000001
  8.1556800000000003  4.6843899999999996 28.5604000000000013
  8.6917200000000001  0.1411870000000000  7.6018699999999999
  8.7543399999999991  5.2790699999999999 28.0529000000000011
  8.7979099999999999  0.5744800000000000  6.7544000000000004
  9.0494699999999995  8.6055200000000003  6.2160399999999996
  0.2138410000000000  4.5705299999999998  0.7816250000000000
  3.9590700000000001  4.1829499999999999  0.3278980000000000
  4.4000800000000000  3.4281700000000002 30.0034999999999989
  3.5711900000000001  3.7865300000000000  1.0681499999999999
  3.7549800000000002  7.4152399999999998  4.4326900000000000
  3.8285100000000001  8.0922400000000003  5.1546700000000003
 -0.0064480100000000  0.3568110000000000 28.2944999999999993
  9.6708499999999997  0.5341910000000000 27.4847999999999999
  6.3472200000000001  2.5615199999999998  2.2153399999999999
  8.9020700000000001  1.0486700000000000 27.8577000000000012
  5.9232100000000001  1.6701600000000001  2.2601300000000002
  4.1555000000000000  7.8754200000000001  3.7344100000000000
  6.3104800000000001  0.9317380000000000  1.7928999999999999
  7.2610400000000004  7.9680299999999997  1.5086900000000001
  7.6348900000000004  7.6537699999999997  2.3521899999999998
  6.7833600000000001  7.2694299999999998  1.0320000000000000
  9.7849900000000005  4.8857100000000004  6.8008600000000001
  4.6269200000000001  4.1945399999999999  3.8874700000000000
  3.2068699999999999  1.6328800000000001  6.1529400000000001
  3.4459900000000001  0.7242360000000000  6.3335299999999997
  2.1641400000000002  5.8540099999999997 28.6198000000000015
  4.4008500000000002  0.8326080000000000  6.3532799999999998
  2.1688200000000002  5.9969700000000001 29.6123000000000012
 10.3795000000000002  5.6797199999999997  6.8234899999999996
  2.6690900000000002  5.3335699999999999 30.0225000000000009
  7.4561200000000003  4.1758800000000003  2.2334700000000001
  8.2499300000000009  4.1906800000000004  1.6342699999999999
  7.7856399999999999  4.5476700000000001  3.0735100000000002
  5.1217300000000003  7.6582200000000000 29.1648999999999994
  3.5967600000000002  0.2893440000000000  1.2511399999999999
  3.3551299999999999  0.7323060000000000  2.0563500000000001
  6.8839899999999998  6.5543800000000001 24.7727000000000004
  4.1975199999999999  1.1699999999999999  2.3233799999999998
  7.0866699999999998  7.2025899999999998 25.4236000000000004
  8.0400200000000002  7.2580299999999998 25.5003999999999991
  9.6548599999999993  3.8959700000000002  0.6151529999999999
 10.1693999999999996  3.0797599999999998  0.4375840000000000
  9.8246199999999995  4.6666299999999996  7.7495500000000002
  5.6644399999999999  0.7272210000000000 26.1327999999999996
  4.7911999999999999  0.3479710000000000 26.1194999999999986
  6.3395799999999998  8.9542500000000000 25.7870999999999988
  6.0129200000000003  5.8486500000000001  0.7453430000000000
  5.1539000000000001  5.4919900000000004  0.4898640000000000
  6.3419800000000004  5.1620499999999998  1.3717400000000000
  1.0388400000000000  7.1497599999999997  6.3495200000000001
  0.9924800000000000  7.9861500000000003  6.8848599999999998
  2.0027400000000002  6.9010899999999999  6.3777200000000001
  8.2857599999999998  3.2303899999999999 23.6589999999999989
  8.1844500000000000  3.7449699999999999 22.7509000000000015
  8.0983699999999992  2.3169700000000000 23.3031000000000006
  6.3354499999999998  7.2540699999999996  6.5663900000000002
  7.0513500000000002  7.8443800000000001  6.1951299999999998
  6.7215299999999996  7.1548499999999997  7.4884899999999996
