Cu  O  H  O  H  O  H  O  H  O  H  O  H  O  H  O  H  O  H  O  H  O  H  O  H  O  H  O  H  O  H  O  H  O  H  O  H  O  H  O  H  O  H  O  H  O  H  O  H  O  H  O  H  O  H  O  H  O  H  O  H  O  H  O  H  O  H  O  H  O  H  O  H  O  H  O  H  O  H  O  H  O  H  O  H  O  H  O  H  O  H  O  H  O  H  O  H  O  H  O  H 
 1.0000000000000000
    10.1403771778044529    0.0000000000000000    0.0000000000000000
     0.0000000000000000    8.7818242399346058    0.0000000000000000
     0.0000000000000000    0.0000000000000000   30.1311271579000000
 Cu  O   H   O   H   O   H   O   H   O   H   O   H   O   H   O   H   O   H   O   H   O   H   O   H   O   H   O   H   O   H   O   H   O   H   O   H   O   H   O   H   O   H   O   H   O   H   O   H   O   H   O   H   O   H   O   H   O   H   O   H   O   H   O   H   O   H   O   H   O   H   O   H   O   H   O   H   O   H   O   H   O   H   O   H   O   H   O   H   O   H   O   H   O   H   O   H   O   H   O   H  
  96   1   2   1   2   1   2   1   2   1   2   1   2   1   2   1   2   1   2   1   2   1   2   1   2   1   2   1   2   1   2   1   1   1   2   1   2   1   3   1   2   1   2   1   2   1   1   1   2   1   2   1   2   1   2   1   2   1   1   1   2   1   3   1   2   1   2   1   2   1   2   1   2   1   2   1   2   1   2   1   2   1   2   1   4   1   2   1   1   1   2   1   2   1   2   1   2   1   2   1   2
Cartesian
  7.0125099999999998  1.1719900000000001  9.9175599999999999
  9.5641300000000005  1.1696599999999999 10.0182000000000002
  1.9329499999999999  1.0964300000000000  9.8413299999999992
  4.5009600000000001  1.1956400000000000  9.7648499999999991
  8.3248400000000000  3.3244500000000001  9.7804599999999997
  0.7393470000000000  3.2145199999999998  9.9807799999999993
  3.1852200000000002  3.3771599999999999  9.9360800000000005
  5.6885700000000003  3.3228700000000000  9.8659099999999995
  9.5833899999999996  5.5066899999999999  9.8335899999999992
  1.9315199999999999  5.3673500000000001 10.0061999999999998
  4.4246800000000004  5.7190700000000003  9.9106600000000000
  6.8725899999999998  5.4485500000000000 10.0305000000000000
  0.6526780000000000  7.7441100000000000  9.7744900000000001
  3.2447800000000000  7.7962899999999999  9.8097999999999992
  5.8729500000000003  7.7838700000000003  9.9850300000000001
  8.3039600000000000  7.6980100000000000  9.9722299999999997
  5.7242899999999999  1.8219500000000000 11.9414999999999996
  8.2650299999999994  1.9096299999999999 11.8910000000000000
  0.7709640000000000  1.7832900000000000 12.0144000000000002
  3.2255699999999998  1.8867200000000000 12.0515000000000008
  7.0524100000000001  4.0149200000000000 11.9403000000000006
  9.6258199999999992  3.9615300000000002 11.9465000000000003
  1.8412999999999999  3.9705400000000002 12.0587000000000000
  4.4302999999999999  4.0607199999999999 11.9260999999999999
  8.2893600000000003  6.2129599999999998 11.8711000000000002
  0.6690590000000000  6.3232299999999997 12.0280000000000005
  3.1187000000000000  6.2004999999999999 11.9825999999999997
  5.6391200000000001  6.3535899999999996 12.0452999999999992
  9.6243099999999995  8.4046199999999995 11.9664999999999999
  1.8966099999999999  8.3400999999999996 11.8901000000000003
  4.4196600000000004  8.5827200000000001 11.7309000000000001
  7.1058800000000000  8.5090100000000000 11.9738000000000007
  5.7039600000000004  0.3659090000000000 14.0305999999999997
  8.2390600000000003  0.3659090000000000 14.0305999999999997
  0.6337739999999999  0.3659090000000000 14.0305999999999997
  3.1688700000000001  0.3659090000000000 14.0305999999999997
  6.9715100000000003  2.5613700000000001 14.0305999999999997
  9.5066000000000006  2.5613700000000001 14.0305999999999997
  1.9013199999999999  2.5613700000000001 14.0305999999999997
  4.4364200000000000  2.5613700000000001 14.0305999999999997
  8.2390600000000003  4.7568200000000003 14.0305999999999997
  0.6337739999999999  4.7568200000000003 14.0305999999999997
  3.1688700000000001  4.7568200000000003 14.0305999999999997
  5.7039600000000004  4.7568200000000003 14.0305999999999997
  9.5066000000000006  6.9522800000000000 14.0305999999999997
  1.9013199999999999  6.9522800000000000 14.0305999999999997
  4.4364200000000000  6.9522800000000000 14.0305999999999997
  6.9715100000000003  6.9522800000000000 14.0305999999999997
  6.9715100000000003  1.0977300000000001 16.1005000000000003
  9.5066000000000006  1.0977300000000001 16.1005000000000003
  1.9013199999999999  1.0977300000000001 16.1005000000000003
  4.4364200000000000  1.0977300000000001 16.1005000000000003
  8.2390600000000003  3.2931800000000000 16.1005000000000003
  0.6337739999999999  3.2931800000000000 16.1005000000000003
  3.1688700000000001  3.2931800000000000 16.1005000000000003
  5.7039600000000004  3.2931800000000000 16.1005000000000003
  9.5066000000000006  5.4886400000000002 16.1005000000000003
  1.9013199999999999  5.4886400000000002 16.1005000000000003
  4.4364200000000000  5.4886400000000002 16.1005000000000003
  6.9715100000000003  5.4886400000000002 16.1005000000000003
  0.6337739999999999  7.6840999999999999 16.1005000000000003
  3.1688700000000001  7.6840999999999999 16.1005000000000003
  5.7039600000000004  7.6840999999999999 16.1005000000000003
  8.2390600000000003  7.6840999999999999 16.1005000000000003
  5.7048500000000004  1.6466000000000001 18.0612999999999992
  8.3078299999999992  1.7629500000000000 18.1536000000000008
  0.7375280000000000  1.7862700000000000 18.1776000000000018
  3.2583099999999998  1.8680500000000000 18.2406000000000006
  6.9106300000000003  3.9632399999999999 18.0706999999999987
  9.4946000000000002  4.1413000000000002 18.1209999999999987
  1.8974599999999999  4.0358499999999999 18.1197000000000017
  4.4961399999999996  3.9529600000000000 18.1748000000000012
  8.1962600000000005  6.2977800000000004 18.2133000000000003
  0.7577540000000000  6.3110200000000001 18.2123999999999988
  3.1695199999999999  6.1219400000000004 18.3203999999999994
  5.6358800000000002  6.0269700000000004 18.2154999999999987
  9.5411300000000008  8.3888200000000008 18.2523000000000017
  1.9095299999999999  8.3671299999999995 18.2739000000000011
  4.4743500000000003  8.3956700000000009 18.1097999999999999
  6.9122199999999996  8.3063500000000001 18.1310000000000002
  5.6527300000000000  0.3434840000000000 20.0757000000000012
  8.1753199999999993  0.4248550000000000 20.2489999999999988
  0.5054440000000000  0.5246050000000000 20.2704999999999984
  2.9941800000000001  0.3756420000000000 20.4385000000000012
  6.9248399999999997  2.6744200000000000 20.0309999999999988
  9.4990100000000002  2.6869700000000001 20.1463999999999999
  1.8491100000000000  2.6142099999999999 20.1810000000000009
  4.4515700000000002  2.6123400000000001 20.1324000000000005
  8.1528100000000006  4.7762399999999996 20.0103000000000009
  0.5371560000000000  4.8226199999999997 20.0895000000000010
  2.8643100000000001  4.7502500000000003 20.2941000000000003
  5.6333900000000003  4.8278400000000001 20.2972999999999999
  9.4070099999999996  7.0201700000000002 20.2794999999999987
  1.8815999999999999  7.0492100000000004 20.3038999999999987
  4.3525499999999999  6.9575600000000000 20.3628000000000000
  6.8420800000000002  6.9196299999999997 20.2555000000000014
  5.5139300000000002  2.6972399999999999 27.5633000000000017
  4.6852299999999998  3.0166700000000000 27.1997000000000000
  5.7190799999999999  1.9363900000000001 26.9666999999999994
  3.0335399999999999  7.5044899999999997  3.2104800000000000
  2.6111399999999998  8.0516400000000008  3.8586900000000002
  3.0302199999999999  8.0382999999999996  2.4135800000000001
  0.8144360000000000  5.7914500000000002  2.6351200000000001
 -0.0767905000000000  2.6230899999999999 24.4313000000000002
  1.0563600000000000  6.7290099999999997  2.6766000000000001
  6.9260299999999999  2.5191800000000000 22.5019999999999989
  6.1383599999999996  2.9917099999999999 22.9568000000000012
  7.5819000000000001  3.1854000000000000 22.7181999999999995
  3.7909000000000002  4.7919099999999997  0.3196730000000000
  3.2633200000000002  4.0320299999999998  0.3616110000000000
  3.0440200000000002  5.4450599999999998  0.2872640000000000
  2.8116800000000000  3.2460300000000002 27.1017000000000010
  4.7080099999999998  5.1032700000000002  1.6778900000000001
  2.4470200000000002  2.4840599999999999 26.6137000000000015
  6.4950099999999997  4.5532100000000000  5.4323300000000003
  5.5959800000000000  1.6526400000000001  4.0892600000000003
  6.5188800000000002  5.2229400000000004  6.1033200000000001
  5.4160800000000000  5.2776800000000001  2.4155199999999999
  7.0446099999999996  5.5917700000000004 27.1505000000000010
  4.7596200000000000  5.4199299999999999  3.1233000000000000
  4.6506699999999999  3.1944699999999999 23.5117000000000012
  4.4343000000000004  3.8002899999999999 24.2423999999999999
  3.2380599999999999  0.8166790000000000 23.4988999999999990
  2.7782700000000000  0.7403970000000000 22.6256999999999984
  2.1587100000000001 -0.0003748200000000 22.8198000000000008
  9.1801600000000008  4.7544000000000004  0.4214320000000000
  7.3618800000000002  4.7777500000000002 27.7089999999999996
  6.5412299999999997  4.2449599999999998 27.6807000000000016
  6.1322200000000002  1.8949700000000000  6.7858299999999998
  5.7480099999999998  8.0461200000000002  1.6749700000000001
  5.2041000000000004  8.5190000000000001  2.3484799999999999
  5.5978300000000001  7.0635700000000003  1.8633999999999999
  4.6533100000000003  1.3593400000000000  4.1414700000000000
  2.2956699999999999  3.9483199999999998 26.5821000000000005
  4.6352599999999997  0.7407490000000000  4.8927800000000001
  9.0395400000000006  2.4797899999999999 27.2420000000000009
  9.4002499999999998  2.3097200000000000 26.3245000000000005
  8.4448500000000006  3.2572899999999998 27.2555000000000014
  0.2605670000000000  2.0455600000000000 25.1198000000000015
  6.7711600000000001  3.7158500000000001  5.7944000000000004
 10.1722999999999999  1.1556299999999999 24.8351000000000006
  2.1949399999999999  1.7966500000000001  3.1156899999999998
  3.1176599999999999  1.4946400000000000  3.2590699999999999
  0.4904910000000000  8.8248599999999993  1.7615000000000001
  1.0188299999999999  0.7325630000000000  2.2059299999999999
  9.7249099999999995  0.1379990000000000  2.1817700000000002
  1.9720299999999999  2.8297200000000000 29.7164999999999999
  2.4532799999999999  3.0463399999999998 28.8095999999999997
  1.2360000000000000  3.4745200000000001 29.6524999999999999
  8.2689299999999992  0.5371180000000000 23.8309999999999995
  8.5265900000000006  8.5767299999999995 23.2859000000000016
  7.7747299999999999  1.1286799999999999 23.3094000000000001
  1.6603399999999999  1.5881500000000000  3.9020899999999998
  9.3464700000000001  4.1989599999999996 29.8016000000000005
  8.6445299999999996  3.5564600000000000 29.7864000000000004
  8.4613700000000005  3.1947399999999999  3.4899300000000002
  9.3402600000000007  3.3764099999999999  3.8231500000000000
  9.5515200000000000  4.2895300000000001  3.7232500000000002
  3.7856299999999998  3.1002399999999999 23.0598999999999990
  2.8909699999999998  4.5007400000000004  3.5448599999999999
  2.6977300000000000  3.5562299999999998  3.4619100000000000
  2.8169400000000002  4.6640499999999996  4.5532800000000000
  7.0414800000000000  1.7652600000000001  6.4195500000000001
  7.3905300000000000  1.2254799999999999  7.1619900000000003
  1.4635300000000000  4.8892499999999997 25.5101000000000013
  1.0125200000000001  4.4804399999999998 24.7942000000000000
  8.2388300000000001  6.1297800000000002  2.4911099999999999
  7.9965400000000004  5.8788000000000000  1.5173700000000001
  9.9686400000000006  1.0391300000000001  5.7569400000000002
  7.0695600000000001  5.7878200000000000  1.7170300000000001
  0.4194760000000000  1.6527799999999999  5.2769500000000003
  0.8121710000000000  5.2434200000000004 26.1081000000000003
 -0.1695280000000000  2.3823200000000000  4.9651899999999998
  0.4234330000000000  0.3122200000000000 28.7586000000000013
  0.5718150000000000  0.6488250000000000 29.6724999999999994
 10.1094000000000008  1.0388100000000000 28.2630000000000017
  9.2629099999999998  7.9960000000000004  6.2691100000000004
  8.3949900000000000  7.7052300000000002  6.5192300000000003
  7.3281200000000002  5.8607899999999997 22.7734999999999985
  7.8781400000000001  5.5531800000000002 23.4725000000000001
  4.0015299999999998  7.7569200000000000 24.6113999999999997
  4.1539599999999997  8.5973900000000008 24.9848999999999997
  9.7584400000000002  7.8975700000000000  7.0971900000000003
  3.5847600000000002  8.6343599999999991 25.8124000000000002
  5.2459499999999997  7.6495600000000001 28.1762000000000015
  5.8225400000000000  8.3074300000000001 27.8128999999999991
  5.8028399999999998  7.3182600000000004 28.9480000000000004
  8.8883100000000006  6.7294499999999999  4.9193100000000003
  8.3404799999999994  6.3087299999999997  4.2344099999999996
  1.8800200000000000  7.4193199999999999 -0.0529345000000000
  7.9349499999999997  5.5594599999999996  4.6117999999999997
  1.4839000000000000  6.4954999999999998 29.9994000000000014
  1.1938700000000000  6.3088199999999999  0.7929380000000000
  9.9061500000000002  7.0726199999999997 26.4969000000000001
  2.6189800000000001  2.2803399999999998  6.6487999999999996
  2.6965300000000001  2.2525499999999998  7.6128499999999999
  1.6764399999999999  1.9069799999999999  6.3474100000000000
  7.0732900000000001  0.7006130000000000 26.4268000000000001
  7.2710699999999999  0.6264010000000000 25.4955999999999996
  2.0746099999999998  8.7787100000000002 27.7377000000000002
  2.7858900000000002  8.3530800000000003 27.2746999999999993
  7.5031800000000004  1.3057900000000000 29.9492000000000012
  3.4336000000000002  7.8993599999999997 27.8768999999999991
  7.0751499999999998  2.1671200000000002 30.0869000000000000
  7.7581800000000003  1.2256400000000001 26.8231999999999999
  6.6480199999999998  2.4264700000000001 29.2564999999999991
  3.9249000000000001  6.1353099999999996 23.9703000000000017
  3.1838700000000002  5.7009900000000000 24.4488999999999983
  3.7962799999999999  5.9955400000000001 23.0043000000000006
  0.0455087000000000  4.0919800000000004 23.3403999999999989
  7.4450399999999997  5.9857100000000001 24.2846000000000011
  7.2639600000000000  8.5902300000000000  2.4493600000000000
  8.1638599999999997  8.8829999999999991  2.8027000000000002
  2.6468300000000000  4.6703099999999997  6.6582200000000000
  8.4315800000000003  8.1795899999999993  3.3540899999999998
  2.3830100000000001  5.3830299999999998  6.0646500000000003
  0.3061380000000000  4.1818799999999996 22.3470000000000013
  2.8701400000000001  6.2256700000000000  6.1856900000000001
  7.8300000000000001  7.8216599999999996 29.7518999999999991
  7.9318700000000000  7.1722599999999996  0.3612810000000000
  8.7400199999999995  7.7612399999999999 29.3326999999999991
  1.6193299999999999  5.3331200000000001  3.0422199999999999
  4.1033299999999997  8.5512899999999998  7.7516800000000003
  4.0116300000000003  8.6638900000000003  6.7870499999999998
  9.6641999999999992  5.0558899999999998 28.0890999999999984
  3.3534099999999998  0.5601580000000000  6.6696299999999997
  0.2688360000000000  5.5348199999999999 27.6613000000000007
  0.6584980000000000  6.0007200000000003 28.4453999999999994
  9.6836300000000008  7.8968100000000003 26.0618000000000016
  8.7373799999999999  8.0270799999999998 26.1627000000000010
  9.4390999999999998  4.6502400000000002 23.5263999999999989
  6.9345100000000004  3.0510600000000001  2.8250700000000002
  6.3474300000000001  3.7701899999999999  2.4666000000000001
  7.0681200000000004  2.5398200000000002  2.0114899999999998
  6.3799999999999999  6.8933900000000001 25.3230000000000004
  6.2295100000000003  7.7985800000000003 25.6235999999999997
  5.5722500000000004  6.5429899999999996 24.9121999999999986
  0.7414470000000000  7.5682099999999997 23.4267000000000003
  0.3145010000000000  6.8316999999999997 22.9350999999999985
  0.3212130000000000  7.5511299999999997 24.2945999999999991
  2.9491499999999999  0.1164170000000000  0.6658360000000000
  2.6610299999999998  1.0382400000000001  0.4947630000000000
  3.7246700000000001  0.0743394000000000  0.0878821000000000
  6.4923599999999997  7.1877500000000003  6.7204699999999997
  5.7305099999999998  7.6924500000000000  6.4397900000000003
  6.5113099999999999  7.2359999999999998  7.7428999999999997
