Cu  O  H  O  H  O  H  O  H  O  H  O  H  O  H  O  H  O  H  O  H  O  H  O  H  O  H  O  H  O  H  O  H  O  H  O  H  O  H  O  H  O  H  O  H  O  H  O  H  O  H  O  H  O  H  O  H  O  H  O  H  O  H  O  H  O  H  O  H  O  H  O  H  O  H  O  H  O  H  O  H  O  H  O  H  O  H  O  H  O  H  O  H  O  H  O  H  O  H  O  H 
 1.0000000000000000
    10.1403771778044529    0.0000000000000000    0.0000000000000000
     0.0000000000000000    8.7818242399346058    0.0000000000000000
     0.0000000000000000    0.0000000000000000   30.1311271579000000
 Cu  O   H   O   H   O   H   O   H   O   H   O   H   O   H   O   H   O   H   O   H   O   H   O   H   O   H   O   H   O   H   O   H   O   H   O   H   O   H   O   H   O   H   O   H   O   H   O   H   O   H   O   H   O   H   O   H   O   H   O   H   O   H   O   H   O   H   O   H   O   H   O   H   O   H   O   H   O   H   O   H   O   H   O   H   O   H   O   H   O   H   O   H   O   H   O   H   O   H   O   H  
  96   1   2   1   2   1   2   1   2   1   2   1   2   1   2   1   2   1   2   1   2   1   2   1   2   1   2   1   2   1   2   1   1   1   2   1   2   1   3   1   2   1   2   1   2   1   1   1   2   1   2   1   2   1   2   1   2   1   1   1   2   1   3   1   2   1   2   1   2   1   2   1   2   1   2   1   2   1   2   1   2   1   2   1   4   1   2   1   1   1   2   1   2   1   2   1   2   1   2   1   2
Cartesian
  6.9801399999999996  0.9999410000000000  9.7978799999999993
  9.5228000000000002  1.1107400000000001  9.9456500000000005
  1.7683300000000000  1.0230800000000000  9.8350299999999997
  4.3165899999999997  1.0855699999999999  9.9647699999999997
  8.1435399999999998  3.3512200000000001  9.9570699999999999
  0.6833350000000000  3.2909500000000000 10.0305999999999997
  3.1173700000000002  3.2944300000000002  9.8416200000000007
  5.6541800000000002  3.0837200000000000 10.0246999999999993
  9.4461099999999991  5.5213400000000004  9.9026399999999999
  1.8421400000000001  5.4005999999999998 10.0419000000000000
  4.3773600000000004  5.3349099999999998  9.8047299999999993
  6.9199900000000003  5.5273899999999996  9.8831600000000002
  0.5880350000000000  7.6320600000000001 10.0472000000000001
  3.1257999999999999  7.5413399999999999  9.9027899999999995
  5.7415900000000004  7.5273099999999999  9.8949300000000004
  8.2143899999999999  7.6058700000000004  9.8285400000000003
  5.5697200000000002  1.7050900000000000 11.9613999999999994
  8.0733099999999993  1.7597700000000001 11.8407000000000000
  0.5047050000000000  1.7127200000000000 11.9255999999999993
  3.1301600000000001  1.7520600000000000 11.9954000000000001
  6.8452400000000004  4.1090700000000000 12.0733999999999995
  9.3466199999999997  3.9636000000000000 12.0922999999999998
  1.8713400000000000  3.9183900000000000 12.0030000000000001
  4.4700300000000004  3.9241000000000001 11.9227000000000007
  8.0854400000000002  6.2261300000000004 11.9532000000000007
  0.4706030000000000  6.0650300000000001 12.0480000000000000
  3.1432600000000002  6.1332500000000003 11.8895999999999997
  5.5691300000000004  6.2338100000000001 11.9077999999999999
  9.4190299999999993  8.4283599999999996 12.0879999999999992
  1.7897799999999999  8.4184000000000001 11.9267000000000003
  4.2604300000000004  8.4058700000000002 11.9497999999999998
  6.8855500000000003  8.4196200000000001 11.9689999999999994
  5.7039600000000004  0.3659090000000000 14.0305999999999997
  8.2390600000000003  0.3659090000000000 14.0305999999999997
  0.6337739999999999  0.3659090000000000 14.0305999999999997
  3.1688700000000001  0.3659090000000000 14.0305999999999997
  6.9715100000000003  2.5613700000000001 14.0305999999999997
  9.5066000000000006  2.5613700000000001 14.0305999999999997
  1.9013199999999999  2.5613700000000001 14.0305999999999997
  4.4364200000000000  2.5613700000000001 14.0305999999999997
  8.2390600000000003  4.7568200000000003 14.0305999999999997
  0.6337739999999999  4.7568200000000003 14.0305999999999997
  3.1688700000000001  4.7568200000000003 14.0305999999999997
  5.7039600000000004  4.7568200000000003 14.0305999999999997
  9.5066000000000006  6.9522800000000000 14.0305999999999997
  1.9013199999999999  6.9522800000000000 14.0305999999999997
  4.4364200000000000  6.9522800000000000 14.0305999999999997
  6.9715100000000003  6.9522800000000000 14.0305999999999997
  6.9715100000000003  1.0977300000000001 16.1005000000000003
  9.5066000000000006  1.0977300000000001 16.1005000000000003
  1.9013199999999999  1.0977300000000001 16.1005000000000003
  4.4364200000000000  1.0977300000000001 16.1005000000000003
  8.2390600000000003  3.2931800000000000 16.1005000000000003
  0.6337739999999999  3.2931800000000000 16.1005000000000003
  3.1688700000000001  3.2931800000000000 16.1005000000000003
  5.7039600000000004  3.2931800000000000 16.1005000000000003
  9.5066000000000006  5.4886400000000002 16.1005000000000003
  1.9013199999999999  5.4886400000000002 16.1005000000000003
  4.4364200000000000  5.4886400000000002 16.1005000000000003
  6.9715100000000003  5.4886400000000002 16.1005000000000003
  0.6337739999999999  7.6840999999999999 16.1005000000000003
  3.1688700000000001  7.6840999999999999 16.1005000000000003
  5.7039600000000004  7.6840999999999999 16.1005000000000003
  8.2390600000000003  7.6840999999999999 16.1005000000000003
  5.7347000000000001  1.7829299999999999 18.2684999999999995
  8.2478400000000001  1.8350700000000000 18.2059999999999995
  0.5978680000000000  1.8600900000000000 18.1313999999999993
  3.1311200000000001  1.8186100000000001 18.2415999999999983
  6.9741900000000001  4.0393299999999996 18.2592999999999996
  9.5686900000000001  4.1447900000000004 18.1500999999999983
  1.9634300000000000  3.9690699999999999 18.1787999999999990
  4.3441000000000001  3.9045399999999999 18.2698000000000000
  8.1757299999999997  6.1999800000000000 18.1880999999999986
  0.7620510000000000  6.1228899999999999 18.2464000000000013
  3.1199900000000000  6.2892500000000000 18.1213000000000015
  5.6706200000000004  6.3122600000000002 18.1407999999999987
  9.5004100000000005  8.4337400000000002 18.1946000000000012
  1.8555299999999999  8.3986800000000006 18.3072000000000017
  4.4065000000000003  8.4685500000000005 18.1600999999999999
  7.0469999999999997  8.4597099999999994 18.0631999999999984
  5.6408899999999997  0.3577820000000000 20.2574000000000005
  8.1397800000000000  0.4659210000000000 20.2329000000000008
  0.5836209999999999  0.5060190000000000 20.1868000000000016
  3.1744100000000000  0.3588570000000000 20.2333999999999996
  7.0315599999999998  2.5599099999999999 20.3312999999999988
  9.6027500000000003  2.6228799999999999 20.1578000000000017
  1.8743300000000001  2.4518300000000002 20.3091000000000008
  4.5091700000000001  2.5198600000000000 20.1155000000000008
  8.2648200000000003  4.7903799999999999 20.2852999999999994
  0.6599680000000000  4.6697100000000002 20.3066999999999993
  3.0533800000000002  4.6736599999999999 20.2124999999999986
  5.7035099999999996  4.7958999999999996 20.3643000000000001
  9.4558800000000005  7.1236400000000000 20.2160000000000011
  1.9326800000000000  6.8909700000000003 20.2350999999999992
  4.3556800000000004  6.8964600000000003 20.2178000000000004
  6.9158999999999997  7.0361099999999999 20.1086999999999989
  0.8983600000000000  0.2595220000000000 25.0649000000000015
  0.2723190000000000  0.4963370000000000 24.3500000000000014
  0.7740420000000000  8.1129700000000007 25.1604999999999990
  5.3426200000000001  0.5924100000000000  1.8424300000000000
  4.8335200000000000  1.2721199999999999  2.2698700000000001
  5.5709799999999996  0.0589067000000000  2.5930100000000000
  0.8808710000000000  1.8963200000000000  3.4386100000000002
  0.3627190000000000  7.6256199999999996 22.6130999999999993
  0.6424609999999999  1.1413100000000000  4.0803500000000001
  6.0191299999999996  1.6920599999999999 23.5411999999999999
  6.5904999999999996  1.3928700000000001 22.7746999999999993
  6.4937800000000001  2.4485399999999999 23.9212999999999987
  1.0958200000000000  6.2055800000000003 25.5030999999999999
  1.6962200000000001  6.2253499999999997 24.7433000000000014
  0.2193610000000000  5.9265699999999999 25.1505000000000010
  9.7359399999999994 -0.0483614000000000 28.4283000000000001
  9.1626899999999996  0.4176550000000000  5.3050800000000002
  0.4869180000000000  0.0542418000000000 28.0111999999999988
  9.6713400000000007  5.4105299999999996  1.2310200000000000
  2.2275900000000002  7.1134000000000004  6.9161500000000000
  0.2288390000000000  6.1721800000000000  1.0652999999999999
  9.6586900000000000  8.6220599999999994  4.7074400000000001
 -0.0901965000000000  2.2709700000000002  0.3725390000000000
  9.0460499999999993  8.3427100000000003  3.9658600000000002
  9.0172200000000000  4.4479400000000000 26.6144999999999996
  8.8207199999999997  3.6456499999999998 27.0742000000000012
  4.7783199999999999  6.0240799999999997 23.2774999999999999
  5.7852199999999998  5.9584099999999998 23.3510999999999989
  6.2305000000000001  5.7339599999999997 22.5169999999999995
  6.1824700000000004  8.3478999999999992  5.1861199999999998
  0.1517350000000000  3.0647199999999999 30.0835000000000008
  1.0126400000000000  3.0040200000000001 29.5823999999999998
  1.9619800000000001  6.1735899999999999 29.5255000000000010
  2.3706499999999999  2.8454199999999998 28.6088999999999984
  3.1582100000000000  2.7656000000000001 29.1398000000000010
  2.2939699999999998  3.7463700000000002 28.1539999999999999
  2.5315599999999998  7.9286300000000001  7.3605299999999998
  9.1160800000000002 -0.1378610000000000 27.6565000000000012
  1.6571499999999999  8.2976799999999997  7.6008599999999999
  5.3108100000000000  2.3317800000000002 29.2203000000000017
  5.8964999999999996  2.5867599999999999 28.4500999999999991
  5.3805600000000000  1.3841600000000001 29.1337000000000010
  9.8445000000000000  7.1638700000000002 23.1295000000000002
 10.0002999999999993  4.5891599999999997  0.7554890000000000
  9.1228700000000007  7.7946999999999997 23.4334999999999987
  5.1441600000000003  1.8956800000000000  6.5529099999999998
  5.1146799999999999  1.4080999999999999  7.3956600000000003
  0.6616550000000000  3.4218600000000001  6.6651800000000003
  0.7112000000000001  3.9516200000000001  7.4576700000000002
  1.5467000000000000  3.5373199999999998  6.2729200000000001
  2.1024400000000001  5.3106200000000001 27.8161999999999985
  2.9916700000000001  5.7028900000000000 27.6346999999999987
  1.6845699999999999  5.6269600000000004 26.9840000000000018
  2.3989500000000001  2.6256100000000000 23.6008999999999993
  1.5879000000000001  2.2368199999999998 23.8435999999999986
  2.6049300000000000  2.1827500000000000 22.7641999999999989
  5.1037699999999999  1.1552899999999999  5.9209300000000002
  5.4362199999999996  0.0524514000000000  4.7359499999999999
  4.6568699999999996  8.2531400000000001  4.6713399999999998
  7.2614099999999997  7.9677400000000000  7.2162699999999997
  7.0401100000000003  7.5145000000000000  6.3987100000000003
  7.6384400000000001  6.8351300000000004  6.1038100000000002
  9.7174999999999994  4.7893400000000002 27.0836000000000006
  3.5051000000000001  7.1202500000000004  3.4504500000000000
  3.3362300000000000  7.7333400000000001  2.6593499999999999
  2.6975199999999999  6.8633199999999999  3.9509300000000001
  1.8988100000000001  6.5502000000000002  0.2726350000000000
  2.5506300000000000  7.2342100000000000  0.1258340000000000
  7.3645300000000002  8.8969100000000001 26.8584999999999994
  7.4137500000000003  8.5375999999999994 25.9873000000000012
  8.8652999999999995  4.2584900000000001  3.7978499999999999
  9.7926199999999994  4.4478700000000000  3.6053799999999998
  2.5338900000000000  1.1779900000000001  1.1037100000000000
  9.8449600000000004  4.7540699999999996  2.6986400000000001
  2.3336500000000000  0.2574610000000000  1.3775200000000001
  7.0536599999999998  8.0880100000000006 27.4249000000000009
  1.3574400000000000  0.1203180000000000  1.3700000000000001
  4.6203300000000000  4.4189800000000004  1.4977300000000000
  4.3789600000000002  5.2812999999999999  1.7286900000000001
  3.9571700000000001  3.8852000000000002  2.0035099999999999
  6.1670900000000000  4.1583399999999999  5.7744799999999996
  7.0947399999999998  4.2493999999999996  6.1807100000000004
  6.9311199999999999  7.3975999999999997 24.0603000000000016
  7.4663700000000004  8.2111800000000006 24.1933000000000007
  8.7673000000000005  2.4080599999999999 23.2692000000000014
  9.4555299999999995  1.7512799999999999 23.1704000000000008
  5.7603600000000004  3.3062100000000001  6.0687400000000000
  9.6640599999999992  1.7180000000000000 22.1743999999999986
  7.7181899999999999  2.2635299999999998  1.1649400000000001
  6.7904299999999997  1.9858800000000001  1.1397299999999999
  7.7735900000000004  2.5376699999999999  2.0567400000000000
  0.7375840000000000  5.7518399999999996  4.7050599999999996
  1.3721200000000000  6.4789700000000003  4.9484599999999999
  4.7846299999999999  8.6370199999999997  0.2996100000000000
  0.8961330000000000  7.3217100000000004  4.6508700000000003
  4.6460600000000003  8.0480199999999993 29.6154000000000011
  3.9733499999999999  8.6440699999999993 29.1015000000000015
  4.0817600000000001  4.4026300000000003 25.7962999999999987
  6.8822000000000001  4.9760299999999997  3.4602599999999999
  6.4524400000000002  4.5542699999999998  4.3041900000000002
  6.2751599999999996  4.7406499999999996  2.7715000000000001
  3.6676099999999998  8.6779600000000006 24.2829000000000015
  4.0400000000000000  0.7174410000000000 24.5184999999999995
  2.7048100000000002  1.3098000000000001 27.8983999999999988
  2.6999599999999999  0.3425720000000000 28.0142999999999986
  9.3446700000000007  2.4036200000000001  6.8135300000000001
  2.9836100000000001  8.6921700000000008 27.2026000000000003
  8.6538100000000000  1.7989999999999999  6.5968099999999996
  2.6571400000000001 -0.1614730000000000 24.4154000000000018
  8.1144800000000004  1.7953399999999999  7.4168200000000004
  6.7006399999999999  2.6397200000000001 27.0268000000000015
  6.2803399999999998  2.8818400000000000 26.2123999999999988
  6.9682800000000000  1.7125500000000000 26.7935000000000016
  2.9726400000000002  5.9984799999999998 23.5285000000000011
  6.8218100000000002  0.1279310000000000 24.0299000000000014
  3.5915200000000000  3.1371899999999999  6.4772100000000004
  3.0872099999999998  3.6892399999999999  5.8500100000000002
  9.4677799999999994  0.2966470000000000 -0.0974386000000000
  3.2599700000000000  4.6037900000000000  6.2118200000000003
  9.5877099999999995  0.2682830000000000  0.8973370000000001
  2.6448999999999998  5.1967900000000000 23.1264000000000003
  8.8126800000000003  0.7972050000000001  1.2925500000000001
  6.4402699999999999  6.9081400000000004 28.0924000000000014
  5.8183299999999996  7.2889699999999999 28.7559000000000005
  6.9808100000000000  6.2761899999999997 28.5667000000000009
  0.2619540000000000  2.6915900000000001  3.5603400000000001
  2.5088200000000001  2.3994900000000001  3.3853300000000002
  3.4097000000000000  2.7347800000000002  3.3405499999999999
  7.8945699999999999  4.3595699999999997 25.0991000000000000
  3.6417999999999999  2.9123399999999999  4.2461099999999998
  7.1631999999999998  3.9325700000000001 24.5994999999999990
  6.7426100000000000  4.6312300000000004 24.0836000000000006
  3.8187700000000002  3.4271400000000001 25.9029999999999987
  3.3547699999999998  3.3003300000000002 25.0407000000000011
  2.8653100000000000  6.6115199999999996 22.8084999999999987
  4.2741800000000003  5.9939700000000000  6.5557200000000000
  4.9142299999999999  5.2529399999999997  6.3177399999999997
  4.5732900000000001  6.3925900000000002  7.3787700000000003
  4.1568199999999997  7.0580200000000000 26.4281000000000006
  4.0987099999999996  7.2925899999999997 25.5281999999999982
  5.0635100000000000  7.0160700000000000 26.6738000000000000
  6.7187700000000001  5.2897299999999996  0.0920937000000000
  6.2073299999999998  4.4306999999999999  0.1408410000000000
  7.6554000000000002  5.0516500000000004  0.3039960000000000
  7.8490300000000000  7.5293299999999999  2.8120400000000001
  8.4205699999999997  7.4147600000000002  2.0446200000000001
  7.3559599999999996  6.7255300000000000  2.8928900000000000
  8.5605300000000000  5.2054000000000000  6.6687500000000002
  8.5514600000000005  5.5984200000000000  7.5456200000000004
  9.3313400000000009  4.7411700000000003  6.4804300000000001
