Cu O  H  O  H  O  H  O  H  O  H  O  H  O  H  O  H  O  H  O  H  O  H  O  H  O  H  O  H  O  H  O  H  O  H  O  H  O  H  O  H  O  H  O  H  O  H  O  H  O  H  O  H  O  H  O  H  O  H  O  H  O  H  O  H  O  H  O  H  O  H  O  H  O  H  O  H  O  H  O  H  O  H  O  H  O  H  O  H  O  H  O  H  O  H  O  H  O  H  O  H 
 1.0000000000000000
    10.1403771778044529    0.0000000000000000    0.0000000000000000
     0.0000000000000000    8.7818242399346058    0.0000000000000000
     0.0000000000000000    0.0000000000000000   30.1311271579000000
 Cu  O   H   O   H   O   H   O   H   O   H   O   H   O   H   O   H   O   H   O   H   O   H   O   H   O   H   O   H   O   H   O   H   O   H   O   H   O   H   O   H   O   H   O   H   O   H   O   H   O   H   O   H   O   H   O   H   O   H   O   H   O   H   O   H   O   H   O   H   O   H   O   H   O   H   O   H   O   H   O   H   O   H   O   H   O   H   O   H   O   H   O   H   O   H   O   H   O   H   O   H  
  96   1   2   1   2   1   2   1   2   1   2   1   2   1   2   1   2   1   2   1   2   1   2   1   2   1   2   1   2   1   2   1   1   1   2   1   2   1   3   1   2   1   2   1   2   1   1   1   2   1   2   1   2   1   2   1   2   1   1   1   2   1   3   1   2   1   2   1   2   1   2   1   2   1   2   1   2   1   2   1   2   1   2   1   4   1   2   1   1   1   2   1   2   1   2   1   2   1   2   1   2
Cartesian
  6.8703099999999999  0.9424030000000000  9.8775700000000004
  9.4294100000000007  1.0355000000000001  9.8813200000000005
  2.0008200000000000  1.1150300000000000  9.9367500000000000
  4.2938900000000002  1.2300100000000000  9.9637100000000007
  8.0740300000000005  3.1692399999999998  9.8993699999999993
  0.5845359999999999  3.2541000000000002  9.8848400000000005
  3.2118199999999999  3.4264800000000002  9.7597299999999994
  5.7418699999999996  3.2603399999999998  9.8590300000000006
  9.5475300000000001  5.4820799999999998  9.8889700000000005
  1.9721800000000000  5.5987999999999998  9.7787799999999994
  4.4731500000000004  5.5061999999999998  9.7726799999999994
  6.9980799999999999  5.4881799999999998  9.7986400000000007
  0.6646240000000000  7.6730700000000001  9.9456600000000002
  3.2226599999999999  7.8002099999999999 10.0274000000000001
  5.7313999999999998  7.6773499999999997  9.9013299999999997
  8.2005499999999998  7.7538000000000000  9.9022500000000004
  5.7374499999999999  1.8984000000000001 12.0138999999999996
  8.2773699999999995  1.8837100000000000 11.9155999999999995
  0.5366570000000001  1.7933300000000001 11.7639999999999993
  3.0271100000000000  1.9761599999999999 12.0012000000000008
  6.8738799999999998  4.1392199999999999 11.9326000000000008
  9.4619800000000005  4.0542400000000001 11.8765999999999998
  1.8895999999999999  4.0924199999999997 11.8111999999999995
  4.4985400000000002  4.0284700000000004 11.9126999999999992
  8.1651699999999998  6.2641900000000001 11.7759000000000000
  0.5638960000000000  6.1826400000000001 12.0053999999999998
  3.1974999999999998  6.2145400000000004 11.8451000000000004
  5.6995800000000001  6.3540999999999999 12.0060000000000002
  9.4377499999999994  8.4190699999999996 12.0075000000000003
  1.8586300000000000  8.4368900000000000 11.9271999999999991
  4.3944999999999999  8.4375400000000003 12.0374999999999996
  6.9704600000000001  8.5354899999999994 11.9632000000000005
  5.7039600000000004  0.3659090000000000 14.0305999999999997
  8.2390600000000003  0.3659090000000000 14.0305999999999997
  0.6337739999999999  0.3659090000000000 14.0305999999999997
  3.1688700000000001  0.3659090000000000 14.0305999999999997
  6.9715100000000003  2.5613700000000001 14.0305999999999997
  9.5066000000000006  2.5613700000000001 14.0305999999999997
  1.9013199999999999  2.5613700000000001 14.0305999999999997
  4.4364200000000000  2.5613700000000001 14.0305999999999997
  8.2390600000000003  4.7568200000000003 14.0305999999999997
  0.6337739999999999  4.7568200000000003 14.0305999999999997
  3.1688700000000001  4.7568200000000003 14.0305999999999997
  5.7039600000000004  4.7568200000000003 14.0305999999999997
  9.5066000000000006  6.9522800000000000 14.0305999999999997
  1.9013199999999999  6.9522800000000000 14.0305999999999997
  4.4364200000000000  6.9522800000000000 14.0305999999999997
  6.9715100000000003  6.9522800000000000 14.0305999999999997
  6.9715100000000003  1.0977300000000001 16.1005000000000003
  9.5066000000000006  1.0977300000000001 16.1005000000000003
  1.9013199999999999  1.0977300000000001 16.1005000000000003
  4.4364200000000000  1.0977300000000001 16.1005000000000003
  8.2390600000000003  3.2931800000000000 16.1005000000000003
  0.6337739999999999  3.2931800000000000 16.1005000000000003
  3.1688700000000001  3.2931800000000000 16.1005000000000003
  5.7039600000000004  3.2931800000000000 16.1005000000000003
  9.5066000000000006  5.4886400000000002 16.1005000000000003
  1.9013199999999999  5.4886400000000002 16.1005000000000003
  4.4364200000000000  5.4886400000000002 16.1005000000000003
  6.9715100000000003  5.4886400000000002 16.1005000000000003
  0.6337739999999999  7.6840999999999999 16.1005000000000003
  3.1688700000000001  7.6840999999999999 16.1005000000000003
  5.7039600000000004  7.6840999999999999 16.1005000000000003
  8.2390600000000003  7.6840999999999999 16.1005000000000003
  5.8035800000000002  1.8155800000000000 18.2291999999999987
  8.1864699999999999  1.7723700000000000 18.0781999999999989
  0.6288070000000000  1.8676100000000000 18.2041000000000004
  3.1585800000000002  1.7647500000000000 18.1129999999999995
  6.9641400000000004  3.9733000000000001 18.1826000000000008
  9.4221800000000009  3.9215300000000002 18.1565000000000012
  1.9008900000000000  3.9654199999999999 18.2042000000000002
  4.5158300000000002  3.8497499999999998 18.1566000000000010
  8.0869599999999995  6.1977599999999997 18.1685000000000016
  0.4329680000000000  6.1673600000000004 18.1253999999999991
  3.1150000000000002  6.2363299999999997 18.0777000000000001
  5.5747900000000001  6.2166899999999998 18.1910999999999987
  9.3689599999999995  8.4630100000000006 18.1068999999999996
  1.8176399999999999  8.3327700000000000 18.1222999999999992
  4.4102699999999997  8.3308599999999995 18.1340000000000003
  7.0069499999999998  8.3670200000000001 18.2671999999999990
  5.6883200000000000  0.2897420000000000 20.2086000000000006
  8.1852999999999998  0.2060430000000000 20.2474999999999987
  0.5857810000000000  0.2974610000000000 20.1083999999999996
  3.1628099999999999  0.3405930000000000 20.1558999999999990
  7.0269199999999996  2.5245000000000002 20.2542000000000009
  9.4060400000000008  2.5055499999999999 20.1347999999999985
  1.8289500000000001  2.5356900000000002 20.2729999999999997
  4.4142799999999998  2.6164900000000002 20.2515999999999998
  8.1935599999999997  4.6924299999999999 20.0657999999999994
  0.5067630000000000  4.7749499999999996 20.1631000000000000
  3.0787399999999998  4.7121500000000003 20.1298999999999992
  5.6556300000000004  4.7780899999999997 20.2119999999999997
  9.5264500000000005  6.8195899999999998 20.3229000000000006
  1.8513900000000001  6.8908500000000004 20.1738000000000000
  4.3421099999999999  6.8524900000000004 20.1825000000000010
  6.8537400000000002  6.9968100000000000 20.2304999999999993
  4.8514200000000001  1.3561700000000001 24.0577000000000005
  4.9648599999999998  1.9808699999999999 23.3491999999999997
  4.8689000000000000  0.5022900000000000 23.5858999999999988
  0.8202310000000000  0.4406340000000000 26.5333000000000006
  0.9460940000000000  1.2372099999999999 27.0185999999999993
  1.1685099999999999  0.4669050000000000 25.6250000000000000
  9.4951299999999996  8.0757899999999996  5.1418600000000003
  7.6367300000000000  2.4473500000000001 28.2667999999999999
  9.7973800000000004  7.3963200000000002  5.7510899999999996
  7.3322500000000002  3.0320700000000000 23.0763999999999996
  7.1739499999999996  3.6479599999999999 22.3462999999999994
  7.3569399999999998  2.0953900000000001 22.7453000000000003
  8.4457799999999992  4.7761899999999997 26.8714000000000013
  8.7771000000000008  4.0026599999999997 27.3720999999999997
  7.8774100000000002  5.1628499999999997 27.5056000000000012
  1.7458899999999999  0.0729663000000000 24.0097999999999985
  0.7902240000000000  6.2761500000000003 22.4029999999999987
  1.9729000000000001  0.6255630000000000 23.2444999999999986
  9.6128400000000003  3.9985499999999998 24.0491999999999990
  1.5850299999999999  4.1779299999999999  0.6346140000000000
  8.7246900000000007  3.6302300000000001 23.8725999999999985
  0.1560910000000000  6.4957099999999999 23.0877000000000017
  3.5341200000000002  5.3835800000000003  6.5284800000000001
  9.8065099999999994  5.6116200000000003 23.2635000000000005
  1.7871400000000000  3.2294499999999999 27.4649000000000001
  2.0734300000000001  3.2386699999999999 28.3837000000000010
  1.3731000000000000  6.5027499999999998  0.3030320000000000
  0.9862540000000000  7.1227900000000002 29.8317000000000014
  0.7117450000000000  6.6842899999999998 28.9911999999999992
  2.0526200000000001  2.0502600000000002  7.7690299999999999
  2.7667799999999998  5.0403599999999997  6.0304599999999997
  2.7045699999999999  4.1230000000000002  6.2602200000000003
  3.8173200000000000  4.7711499999999996 22.8538999999999994
  4.4268700000000001  8.1002299999999998 26.4832000000000001
  4.5909500000000003  0.0736734000000000 25.9177999999999997
  4.2879500000000004  8.3283199999999997 27.4533999999999985
  1.3806300000000000  5.0058100000000003  1.1240000000000001
  1.0921900000000000  8.1807900000000000 23.7092999999999989
  1.4836499999999999  4.7913500000000004  2.0881799999999999
  4.1301199999999998  7.4397900000000003 23.1522000000000006
  3.2803900000000001  7.8706899999999997 23.4415000000000013
  4.1526899999999998  7.3309600000000001 22.1780000000000008
  8.4530999999999992  2.2432900000000000 27.7627999999999986
  9.3949499999999997  4.3633300000000004 24.9782000000000011
  8.1336399999999998  1.5046800000000000 27.1677999999999997
  1.9775499999999999  2.8182200000000002  0.0289181000000000
  1.2212499999999999  2.2221400000000000  0.1059200000000000
  1.0401300000000000  4.3504199999999997  3.6121500000000002
  0.2136220000000000  3.9207200000000002  3.9161999999999999
  1.4159999999999999  4.7790800000000004  4.4003100000000002
  0.0141754000000000  1.0507700000000000 29.6412000000000013
  9.5343300000000006  1.5592500000000000 29.1055999999999990
  9.8727699999999992  0.1356150000000000 29.7042999999999999
  3.2684600000000001  7.6637899999999997  4.4405999999999999
  2.9582999999999999  6.9022199999999998  4.9084099999999999
  4.0111200000000000  8.0517000000000003  4.9164000000000003
  2.6566999999999998  2.5343000000000000  0.6769950000000000
  2.3823900000000000  1.9433100000000001  6.8482200000000004
  3.2446700000000002  1.5484899999999999  6.8469400000000000
  8.6894899999999993  1.4177999999999999  7.4390299999999998
  8.5318600000000000  1.3997500000000000  6.5081400000000000
  8.9282800000000009  0.5759500000000000  6.1418499999999998
  2.7257099999999999  3.1832199999999999 27.1376999999999988
  4.9261100000000004  6.6034899999999999  6.9925800000000002
  4.9952399999999999  6.7805000000000000  7.9343399999999997
  5.7120800000000003  6.0487399999999996  6.8480999999999996
  4.4140600000000001  4.0319200000000004 23.0897000000000006
  5.2053099999999999  4.6106999999999996 23.1038999999999994
  4.0779300000000003  6.0378999999999996  0.1312840000000000
  4.6041100000000004  6.1815600000000002  0.9859950000000000
  8.0866399999999992  3.9913099999999999  0.9388890000000000
  7.6901700000000002  3.1016900000000001  1.1824500000000000
  4.9759799999999998  2.6470799999999999  0.8104560000000000
  8.1435099999999991  2.8073899999999998  1.9431900000000000
  4.3330200000000003  2.5888900000000001  1.4603299999999999
  3.4789300000000001  5.2908900000000001  0.3180470000000000
  4.2035700000000000  1.6406300000000000  1.6220100000000000
  6.4484399999999997  0.1837170000000000  0.4138790000000000
  6.2686400000000004  0.8589480000000000 29.8740999999999985
  6.4869199999999996  0.6414650000000000  1.2416400000000001
  9.5543899999999997  1.6954700000000000  2.3941699999999999
  0.2986220000000000  1.5408299999999999  2.7653400000000001
  4.0689000000000002  6.5530400000000002 26.3937999999999988
  3.8766300000000000  5.6026199999999999 26.3412000000000006
  6.6699700000000002  3.3686600000000002  2.5788600000000002
  6.2209500000000002  3.6678999999999999  3.4060100000000002
  9.6940700000000000  1.3580900000000000  1.4512000000000000
  5.6507100000000001  2.9217200000000001  3.6818499999999998
  8.3154299999999992  8.3951799999999999 26.5392000000000010
  9.2801600000000004  8.7553699999999992 26.5845999999999982
  8.1664100000000008  8.2434499999999993 25.5938000000000017
  0.7161360000000000  5.4813200000000002 26.8826999999999998
  1.3290200000000001  6.2576400000000003 26.9930999999999983
  5.5450200000000001  1.2365100000000000  5.7934900000000003
  0.9039910000000000  7.1743800000000002 26.8837000000000010
  5.2979000000000003  0.3274830000000000  5.4770099999999999
  5.6353000000000000  8.3583999999999996  5.9745100000000004
  5.8495299999999997  3.3414799999999998 28.7529000000000003
  1.7853500000000000  2.5071900000000000 22.6893999999999991
  2.6004999999999998  2.8269400000000000 23.0469000000000008
  1.0007600000000001  2.7686299999999999 23.1875999999999998
  9.9425200000000000  5.6996700000000002  7.0582900000000004
  9.8209800000000005  6.1391700000000000  7.9419500000000003
  4.6141500000000004  2.2796699999999999 25.5908000000000015
  4.4289500000000004  2.7783799999999998 26.3880000000000017
  8.3474500000000003  6.2228199999999996  0.0821782000000000
  4.6345900000000002  3.7103000000000002 26.1140000000000008
  8.7200500000000005  5.6785199999999998  0.8213170000000000
  0.7443890000000000  5.5681099999999999  6.9862700000000002
  9.6784999999999997  5.7715899999999998  0.8818120000000000
  7.0933400000000004  5.2776199999999998  6.1087800000000003
  8.0584199999999999  5.1299799999999998  6.2912299999999997
  7.0921200000000004  5.5360300000000002  5.1881800000000000
  5.8000999999999996  5.0693000000000001 28.3693999999999988
  2.9250300000000000  5.5722500000000004 26.3870000000000005
  2.4505699999999999  8.6951699999999992 28.8947000000000003
  3.3566699999999998  8.5040899999999997 29.1180999999999983
  5.6431399999999998  5.1827699999999997  2.8322400000000001
  3.2975300000000001  7.6100700000000003 29.4860000000000007
  5.4024200000000002  6.0676500000000004  2.4861000000000000
  5.2339500000000001  4.9273899999999999 27.5939000000000014
  6.2331000000000003  6.5549299999999997  2.3915799999999998
  6.7531100000000004  0.9727950000000000  3.1132700000000000
  7.7403300000000002  0.9873750000000000  3.1883900000000001
  6.3177199999999996  0.4170250000000000  3.8729800000000001
  0.1427440000000000  8.4614300000000000  4.7236300000000000
  2.1421199999999998  0.4387900000000000  3.8634200000000001
  1.2862100000000001  0.7712240000000000  4.1862399999999997
  7.4436099999999996  8.1606400000000008 29.4372000000000007
  1.4810700000000001  1.2889900000000001  4.9862399999999996
  8.0219199999999997  7.5496499999999997 28.9822999999999986
  7.8462500000000004  7.6435000000000004 28.0079999999999991
  5.6738600000000003  2.3736999999999999 28.9466999999999999
  4.9079499999999996  2.1368900000000002 28.3312999999999988
  5.1725199999999996  5.4606599999999998 29.0385999999999989
  7.8737399999999997  6.2497900000000000  3.5909300000000002
  8.3493700000000004  6.9832000000000001  3.9771399999999999
  8.3475900000000003  6.0582799999999999  2.7826200000000001
  7.8175100000000004  8.0755800000000004 23.6628000000000007
  7.0272300000000003  7.8807200000000002 23.1439999999999984
  8.5460899999999995  7.9905600000000003 22.9940999999999995
  8.9845400000000009  3.4898099999999999  4.9809500000000000
  9.0821199999999997  2.6650299999999998  5.5364300000000002
  8.1424699999999994  3.4442900000000001  4.5734599999999999
  5.8173800000000000  2.6132100000000000  6.5232900000000003
  6.2591000000000001  2.5985900000000002  7.4367200000000002
  6.0851699999999997  3.4809000000000001  6.0712200000000003
  3.6798099999999998  0.0201188000000000  1.9296800000000001
  3.6900800000000000  8.4333399999999994  1.0675300000000001
  3.7336600000000000  8.0891800000000007  2.5995900000000001
