Cu  O  H  O  H  O  H  O  H  O  H  O  H  O  H  O  H  O  H  O  H  O  H  O  H  O  H  O  H  O  H  O  H  O  H  O  H  O  H  O  H  O  H  O  H  O  H  O  H  O  H  O  H  O  H  O  H  O  H  O  H  O  H  O  H  O  H  O  H  O  H  O  H  O  H  O  H  O  H  O  H  O  H  O  H  O  H  O  H  O  H  O  H  O  H  O  H  O  H  O  H 
 1.0000000000000000
    10.1403771778044529    0.0000000000000000    0.0000000000000000
     0.0000000000000000    8.7818242399346058    0.0000000000000000
     0.0000000000000000    0.0000000000000000   30.1311271579000000
 Cu  O   H   O   H   O   H   O   H   O   H   O   H   O   H   O   H   O   H   O   H   O   H   O   H   O   H   O   H   O   H   O   H   O   H   O   H   O   H   O   H   O   H   O   H   O   H   O   H   O   H   O   H   O   H   O   H   O   H   O   H   O   H   O   H   O   H   O   H   O   H   O   H   O   H   O   H   O   H   O   H   O   H   O   H   O   H   O   H   O   H   O   H   O   H   O   H   O   H   O   H  
  96   1   2   1   2   1   2   1   2   1   2   1   2   1   2   1   2   1   2   1   2   1   2   1   2   1   2   1   2   1   2   1   1   1   2   1   2   1   3   1   2   1   2   1   2   1   1   1   2   1   2   1   2   1   2   1   2   1   1   1   2   1   3   1   2   1   2   1   2   1   2   1   2   1   2   1   2   1   2   1   2   1   2   1   4   1   2   1   1   1   2   1   2   1   2   1   2   1   2   1   2
Cartesian
  6.8625499999999997  1.0394300000000001  9.8872999999999998
  9.4846500000000002  1.1962500000000000  9.8632500000000007
  1.9613000000000000  1.0772400000000000 10.0358000000000001
  4.3702600000000000  1.0267900000000001  9.8135499999999993
  8.2094600000000000  3.1710900000000000  9.9895099999999992
  0.6064170000000000  3.3300999999999998 10.0963999999999992
  3.1661100000000002  3.2518300000000000  9.8322000000000003
  5.5935699999999997  3.2936299999999998  9.9395900000000008
  9.4196600000000004  5.5674400000000004  9.9533799999999992
  1.9475199999999999  5.4879199999999999  9.8896999999999995
  4.5123899999999999  5.3877100000000002  9.9117400000000000
  6.9154799999999996  5.4956199999999997 10.0602999999999998
  0.6335560000000000  7.7664299999999997  9.8262099999999997
  3.1407699999999998  7.6867200000000002  9.8430999999999997
  5.6314799999999998  7.7259000000000002  9.7748799999999996
  8.1750299999999996  7.7027999999999999  9.8010000000000002
  5.6465800000000002  1.7329100000000000 11.9115000000000002
  8.1377100000000002  1.8370400000000000 11.9438999999999993
  0.6482070000000000  1.8818299999999999 12.0078999999999994
  3.2212499999999999  2.0282600000000000 11.9943000000000008
  7.0755499999999998  4.0482300000000002 11.8932000000000002
  9.5375300000000003  4.0648700000000000 12.0730000000000004
  1.9200200000000001  4.0222600000000002 12.0725999999999996
  4.5509000000000004  4.0898199999999996 12.0393000000000008
  8.3312200000000001  6.2835200000000002 11.9723000000000006
  0.6895140000000000  6.2745300000000004 11.9934999999999992
  3.1651500000000001  6.2730800000000002 11.9931000000000001
  5.6640300000000003  6.1726900000000002 12.0320000000000000
  9.4044399999999992  8.5381099999999996 11.8398000000000003
  1.9257599999999999  8.4808599999999998 11.9192999999999998
  4.3252100000000002  8.3540100000000006 11.9032999999999998
  6.9891300000000003  8.3758599999999994 11.9380000000000006
  5.7039600000000004  0.3659090000000000 14.0305999999999997
  8.2390600000000003  0.3659090000000000 14.0305999999999997
  0.6337739999999999  0.3659090000000000 14.0305999999999997
  3.1688700000000001  0.3659090000000000 14.0305999999999997
  6.9715100000000003  2.5613700000000001 14.0305999999999997
  9.5066000000000006  2.5613700000000001 14.0305999999999997
  1.9013199999999999  2.5613700000000001 14.0305999999999997
  4.4364200000000000  2.5613700000000001 14.0305999999999997
  8.2390600000000003  4.7568200000000003 14.0305999999999997
  0.6337739999999999  4.7568200000000003 14.0305999999999997
  3.1688700000000001  4.7568200000000003 14.0305999999999997
  5.7039600000000004  4.7568200000000003 14.0305999999999997
  9.5066000000000006  6.9522800000000000 14.0305999999999997
  1.9013199999999999  6.9522800000000000 14.0305999999999997
  4.4364200000000000  6.9522800000000000 14.0305999999999997
  6.9715100000000003  6.9522800000000000 14.0305999999999997
  6.9715100000000003  1.0977300000000001 16.1005000000000003
  9.5066000000000006  1.0977300000000001 16.1005000000000003
  1.9013199999999999  1.0977300000000001 16.1005000000000003
  4.4364200000000000  1.0977300000000001 16.1005000000000003
  8.2390600000000003  3.2931800000000000 16.1005000000000003
  0.6337739999999999  3.2931800000000000 16.1005000000000003
  3.1688700000000001  3.2931800000000000 16.1005000000000003
  5.7039600000000004  3.2931800000000000 16.1005000000000003
  9.5066000000000006  5.4886400000000002 16.1005000000000003
  1.9013199999999999  5.4886400000000002 16.1005000000000003
  4.4364200000000000  5.4886400000000002 16.1005000000000003
  6.9715100000000003  5.4886400000000002 16.1005000000000003
  0.6337739999999999  7.6840999999999999 16.1005000000000003
  3.1688700000000001  7.6840999999999999 16.1005000000000003
  5.7039600000000004  7.6840999999999999 16.1005000000000003
  8.2390600000000003  7.6840999999999999 16.1005000000000003
  5.7774700000000001  1.7851800000000000 18.1866999999999983
  8.2676599999999993  1.8496999999999999 18.2649000000000008
  0.5965400000000000  1.7880400000000001 18.0701999999999998
  3.1463100000000002  1.8055699999999999 18.1462000000000003
  6.9564399999999997  3.9681999999999999 18.2191000000000010
  9.4790200000000002  3.9965999999999999 18.0671999999999997
  1.9208300000000000  3.8839899999999998 18.1352000000000011
  4.4687200000000002  4.0662099999999999 18.0462999999999987
  8.2437500000000004  6.3123800000000001 18.1617999999999995
  0.7935320000000000  6.1557500000000003 18.1681999999999988
  3.1291099999999998  6.3192000000000004 18.1189999999999998
  5.7387800000000002  6.2040600000000001 18.1844999999999999
  9.6011900000000008  8.4394500000000008 18.0852000000000004
  1.9887400000000000  8.4426000000000005 18.1810000000000009
  4.5152299999999999  8.3582699999999992 18.1853000000000016
  7.0810800000000000  8.4237300000000008 18.2799000000000014
  5.6608999999999998  0.3303570000000000 20.1155000000000008
  8.2266800000000000  0.3380230000000000 20.2510000000000012
  0.6479480000000000  0.3838490000000000 20.2799000000000014
  3.0880700000000001  0.5339310000000000 20.2251000000000012
  6.9730299999999996  2.5508299999999999 20.2512000000000008
  9.5968000000000000  2.7190500000000002 20.2577999999999996
  1.9597400000000000  2.6426799999999999 20.2249000000000017
  4.4419199999999996  2.6203400000000001 20.0666000000000011
  8.2940199999999997  4.7788100000000000 20.1963000000000008
  0.6062600000000000  4.8043399999999998 20.1138000000000012
  3.1174599999999999  4.8278699999999999 20.0793999999999997
  5.6617300000000004  4.6611700000000003 20.3337000000000003
  9.5917999999999992  6.9994300000000003 20.0902999999999992
  1.9042800000000000  6.9046900000000004 20.3968999999999987
  4.3562900000000004  6.9690200000000004 19.9926999999999992
  6.8936099999999998  6.9964800000000000 20.0836000000000006
  0.4094190000000000  2.5439200000000000 25.7850999999999999
  1.1316100000000000  1.8822900000000000 25.6014000000000017
  0.3414070000000000  3.0649999999999999 24.9182999999999986
  9.2278300000000009  1.0536900000000000 23.5677999999999983
  8.3399199999999993  1.4242400000000000 23.3628999999999998
  9.6310599999999997  0.9883280000000000 22.6437999999999988
  2.8831500000000001  3.3548100000000001  4.1352599999999997
  6.7702499999999999  6.0827400000000003  0.9814590000000000
  2.1353300000000002  3.8584800000000001  3.7338300000000002
  3.4706800000000002  0.4553310000000000  6.7001799999999996
  2.8498000000000001  0.8938060000000000  6.1162400000000003
  4.3200000000000003  0.9440300000000000  6.5251099999999997
  7.2066400000000002  7.3861299999999996  2.1143800000000001
  8.1193200000000001  7.3139200000000004  2.2137799999999999
  6.9452900000000000  7.6922199999999998  2.9870100000000002
  5.8576699999999997  1.7310300000000001  5.8801300000000003
  5.4979800000000001  3.0819600000000000  2.7821199999999999
  5.6405200000000004  2.2698100000000001  5.0964000000000000
  9.6429299999999998  8.2088800000000006 25.7768000000000015
  0.5221590000000000  0.6912970000000001 28.7787000000000006
 -0.0414518000000000  8.8147599999999997 26.3553999999999995
  5.3949900000000000  3.5956399999999999  3.6520800000000002
  6.5884999999999998  5.9743399999999998 27.3970999999999982
  4.4031099999999999  3.4480700000000000  3.7139899999999999
  7.0737399999999999  8.1893899999999995  4.7290700000000001
  6.6195500000000003  0.2043650000000000  5.1698199999999996
  2.2898200000000002  8.2498000000000005 25.4142000000000010
  2.5512000000000001  0.3633000000000000 25.0977999999999994
  3.1502599999999998  0.6435090000000000 25.8462999999999994
  3.0760100000000001  6.4958499999999999 26.8195000000000014
  5.8916100000000000  5.6462800000000000 27.9792999999999985
  6.2426500000000003  5.5169800000000002 28.8923999999999985
  6.4106800000000002  4.0609000000000002  7.8764099999999999
  1.4117200000000001  4.3382300000000003  0.6168640000000000
  0.7728110000000000  3.6754799999999999  0.2658960000000000
  1.2579100000000001  4.3479200000000002  1.5801700000000001
  0.9669610000000000  0.1940830000000000 28.0757000000000012
  6.4206300000000001  2.3068399999999998  6.4555999999999996
  0.7322390000000000  8.0385000000000009 28.3167000000000009
 10.0884999999999998  6.6057399999999999 23.5247999999999990
  0.3400690000000000  6.7328099999999997 22.6588999999999992
  0.3301950000000000  7.1757299999999997 24.2299000000000007
  6.6201299999999996  5.2772199999999998  0.3885740000000000
  9.4450000000000003 -0.0138488000000000 24.9677000000000007
  7.0227199999999996  4.5555599999999998  0.8683840000000000
  7.8962399999999997  8.3731899999999992 29.0051999999999985
  7.8887499999999999  8.7773400000000006 29.8941000000000017
  3.5116299999999998  2.8944500000000000 29.9879999999999995
  3.5378799999999999  2.3372799999999998 29.1833999999999989
  2.6031900000000001  3.2357700000000000  0.0582699000000000
  3.6573899999999999  5.6829799999999997  0.7052079999999999
  2.7993500000000000  5.1680500000000000  0.6107720000000000
  4.3813300000000002  5.0651900000000003  0.4901070000000000
  3.3309000000000002  6.1134899999999996  6.9369899999999998
  4.2072900000000004  6.4393300000000000  6.6120400000000004
  3.0623999999999998  6.9688600000000003  7.3908600000000000
  7.9799800000000003  0.3304380000000000 28.3218999999999994
  2.5125600000000001  6.3939300000000001 26.0179000000000009
  2.8670000000000000  5.5407999999999999 25.6901000000000010
  8.7230899999999991  1.2560800000000001  7.3897899999999996
  9.2615300000000005  1.5722300000000000  6.6075600000000003
  9.9895300000000002  2.0478700000000001  7.1191700000000004
  7.9633000000000003  8.0530700000000000  5.1653099999999998
  9.3249600000000008  7.4480199999999996  6.0698200000000000
  9.1461400000000008  7.8191100000000002  6.9113300000000004
  9.5581800000000001  6.5391700000000004  6.1582900000000000
  6.9487899999999998  4.1911600000000000  7.0965499999999997
  6.4116700000000000  4.7095700000000003  6.5059100000000001
  5.9004000000000003  4.5397400000000001 23.2874000000000017
  6.3097799999999999  5.3941900000000000 23.3365000000000009
  0.3904210000000000  0.8245620000000000  5.5527400000000000
  1.2645299999999999  0.8030340000000000  5.1365699999999999
  1.9123399999999999  0.0938506000000000  1.7110799999999999
  1.5104400000000000  1.6412100000000001  4.6294199999999996
  0.9984070000000000  0.4747940000000000  1.6460300000000001
  4.9438899999999997  4.6182999999999996 23.2262999999999984
  0.3800430000000000  8.4766999999999992  1.6338999999999999
  4.7111000000000001  0.4687460000000000 23.1642000000000010
  4.5841799999999999  0.2665090000000000 24.1350000000000016
  3.7715500000000000  0.5589900000000000 22.9605999999999995
  9.4488400000000006  4.7641799999999996  5.9965599999999997
  8.7606099999999998  4.5304300000000000  6.6250099999999996
  5.6717199999999997  4.0411799999999998 26.9614000000000011
  5.9510899999999998  3.5032800000000002 26.2330000000000005
  9.2065999999999999  2.4260500000000000  0.0825630000000000
 10.1053999999999995  2.2340000000000000 29.9241999999999990
  0.1474060000000000  4.5542899999999999  6.3675499999999996
  0.3107870000000000  1.8216800000000000  0.6238790000000000
  0.3854880000000000  4.7745100000000003 27.0619000000000014
  0.3463110000000000  3.8409700000000000 26.6966000000000001
  1.0253399999999999  5.3218100000000002 26.6340000000000003
  4.6404500000000004  6.7626299999999997 28.2734999999999985
  3.7017600000000002  7.1604299999999999 28.3000000000000007
  8.9210700000000003  2.1499999999999999  4.4286599999999998
  3.2860399999999998  6.5723799999999999 28.9491000000000014
  9.3581599999999998  2.2635299999999998  3.5863800000000001
  9.7671100000000006  1.4615800000000001  3.3038599999999998
  0.3080520000000000  5.8761099999999997 28.5092999999999996
  0.4107250000000000  3.9529999999999998 23.6126000000000005
  0.0429174000000000  4.8513799999999998 23.6177999999999990
  0.2356240000000000  3.6195800000000000 22.7236000000000011
  7.9297700000000004  6.1058700000000004 26.0756000000000014
  8.6432699999999993  6.8233300000000003 26.0985000000000014
  2.6002299999999998  1.0232800000000000 28.0792000000000002
  3.5044300000000002  1.3206300000000000 27.8271000000000015
  0.3346020000000000  6.2412799999999997  1.9153800000000001
  3.9422700000000002  0.5260440000000000 27.6636999999999986
  9.9202600000000007  6.7917899999999998  1.3603300000000000
  8.3768200000000004  5.2433899999999998 26.0073000000000008
  0.0887497000000000  6.5478100000000001  0.4539870000000000
  7.9728599999999998  1.7940900000000000 26.9910999999999994
  7.4513199999999999  2.5147100000000000 26.5899999999999999
  8.8287499999999994  1.8369000000000000 26.4842000000000013
  7.2538400000000003  7.0676500000000004 23.1298999999999992
  6.1063099999999997  4.1055700000000002 25.4968000000000004
  2.1844600000000001  2.9701800000000000  7.6125400000000001
  2.0727600000000002  3.5344600000000002  6.7799100000000001
  4.8252800000000002  0.7942740000000000  1.6778100000000000
  2.5862300000000000  4.3481199999999998  7.0416900000000000
  5.2212699999999996  1.7074100000000001  1.5393800000000000
  6.8264699999999996  7.8603199999999998 22.8524999999999991
  4.6067000000000000  2.0573800000000002  0.9084070000000000
  3.2182900000000001  3.9191600000000002 24.2347000000000001
  2.3121499999999999  4.0193399999999997 23.9183999999999983
  3.1898000000000000  3.1811300000000000 24.8494999999999990
  2.7296299999999998  3.3754599999999999  5.1212200000000001
  5.3212200000000003  5.5062400000000000  4.4540499999999996
  5.6631400000000003  5.9746100000000002  5.2320099999999998
  5.8464400000000003  7.5091799999999997 26.1781000000000006
  6.2626999999999997  6.7343000000000002  4.9227400000000001
  5.6125299999999996  8.3709199999999999 26.4689000000000014
  6.4241599999999996  8.7198499999999992 26.8309999999999995
  0.0072145600000000  6.6793699999999996 28.9628000000000014
  9.2459299999999995  6.9704300000000003 28.9055999999999997
  8.2520699999999998  7.1762899999999998 23.0045000000000002
  3.6592899999999999  8.0955600000000008  1.8227599999999999
  3.4356700000000000  7.9158299999999997  2.7273100000000001
  3.5017299999999998  7.3214699999999997  1.3682399999999999
  0.8056330000000000  5.1331800000000003  3.4438399999999998
  0.2060340000000000  4.6682800000000002  4.0512699999999997
  1.1616400000000000  5.8653199999999996  3.9024500000000000
  2.2084100000000002  7.0690600000000003  4.3716100000000004
  2.6702800000000000  6.7464399999999998  5.1697300000000004
  1.7738499999999999  7.9149300000000000  4.7722400000000000
  6.8187899999999999  2.1046999999999998 22.6297999999999995
  6.4883699999999997  3.0456300000000001 22.8735999999999997
  5.9992999999999999  1.6273100000000000 22.8920999999999992
  7.7147699999999997  2.3346399999999998  0.9565450000000000
  7.8029900000000003  2.5576500000000002  1.8914000000000000
  6.8285600000000004  1.9670700000000001  0.9300680000000000
