Cu O  H  O  H  O  H  O  H  O  H  O  H  O  H  O  H  O  H  O  H  O  H  O  H  O  H  O  H  O  H  O  H  O  H  O  H  O  H  O  H  O  H  O  H  O  H  O  H  O  H  O  H  O  H  O  H  O  H  O  H  O  H  O  H  O  H  O  H  O  H  O  H  O  H  O  H  O  H  O  H  O  H  O  H  O  H  O  H  O  H  O  H  O  H  O  H  O  H  O  H 
 1.0000000000000000
    10.1403771778044529    0.0000000000000000    0.0000000000000000
     0.0000000000000000    8.7818242399346058    0.0000000000000000
     0.0000000000000000    0.0000000000000000   30.1311271579000000
 Cu  O   H   O   H   O   H   O   H   O   H   O   H   O   H   O   H   O   H   O   H   O   H   O   H   O   H   O   H   O   H   O   H   O   H   O   H   O   H   O   H   O   H   O   H   O   H   O   H   O   H   O   H   O   H   O   H   O   H   O   H   O   H   O   H   O   H   O   H   O   H   O   H   O   H   O   H   O   H   O   H   O   H   O   H   O   H   O   H   O   H   O   H   O   H   O   H   O   H   O   H  
  96   1   2   1   2   1   2   1   2   1   2   1   2   1   2   1   2   1   2   1   2   1   2   1   2   1   2   1   2   1   2   1   1   1   2   1   2   1   3   1   2   1   2   1   2   1   1   1   2   1   2   1   2   1   2   1   2   1   1   1   2   1   3   1   2   1   2   1   2   1   2   1   2   1   2   1   2   1   2   1   2   1   2   1   4   1   2   1   1   1   2   1   2   1   2   1   2   1   2   1   2
Cartesian
  6.9156500000000003  1.1978599999999999  9.8494499999999992
  9.5499899999999993  1.1526099999999999  9.7983700000000002
  1.7710399999999999  1.0900600000000000  9.9862599999999997
  4.4652000000000003  1.1122600000000000  9.8509799999999998
  8.2878799999999995  3.3820399999999999  9.8946500000000004
  0.6802470000000000  3.2439000000000000 10.0198999999999998
  3.0871400000000002  3.3399800000000002  9.8161900000000006
  5.5764600000000000  3.4115400000000000 10.1113999999999997
  9.4478000000000009  5.4717300000000000  9.9666899999999998
  1.7588699999999999  5.4969299999999999  9.9319100000000002
  4.4141700000000004  5.5231500000000002  9.9032000000000000
  6.8517500000000000  5.5419499999999999  9.9422800000000002
  0.6321900000000000  7.7410800000000002  9.6924299999999999
  3.1745500000000000  7.6218599999999999  9.7670100000000009
  5.7565600000000003  7.6019300000000003  9.9707600000000003
  8.1967800000000004  7.6850399999999999  9.7901699999999998
  5.6099600000000001  1.8559099999999999 11.8940999999999999
  8.1698599999999999  1.9421600000000001 11.9520999999999997
  0.6353360000000000  1.8559800000000000 11.9877000000000002
  3.1011400000000000  1.9284300000000001 11.9716000000000005
  6.9337099999999996  4.1188500000000001 11.9459000000000000
  9.5262600000000006  4.1205999999999996 12.0940999999999992
  1.8053200000000000  4.0228400000000004 11.9288000000000007
  4.2767600000000003  4.1014799999999996 11.9621999999999993
  8.2648499999999991  6.3705400000000001 11.9025999999999996
  0.5869920000000000  6.3039399999999999 11.8979999999999997
  3.0869599999999999  6.2948300000000001 11.9520999999999997
  5.6776499999999999  6.3685799999999997 12.0652000000000008
  9.4505300000000005  8.4939099999999996 11.7950999999999997
  1.8369500000000001  8.4272500000000008 12.0304000000000002
  4.2653200000000000  8.4951899999999991 11.9407999999999994
  6.9883499999999996  8.4606600000000007 11.9921000000000006
  5.7039600000000004  0.3659090000000000 14.0305999999999997
  8.2390600000000003  0.3659090000000000 14.0305999999999997
  0.6337739999999999  0.3659090000000000 14.0305999999999997
  3.1688700000000001  0.3659090000000000 14.0305999999999997
  6.9715100000000003  2.5613700000000001 14.0305999999999997
  9.5066000000000006  2.5613700000000001 14.0305999999999997
  1.9013199999999999  2.5613700000000001 14.0305999999999997
  4.4364200000000000  2.5613700000000001 14.0305999999999997
  8.2390600000000003  4.7568200000000003 14.0305999999999997
  0.6337739999999999  4.7568200000000003 14.0305999999999997
  3.1688700000000001  4.7568200000000003 14.0305999999999997
  5.7039600000000004  4.7568200000000003 14.0305999999999997
  9.5066000000000006  6.9522800000000000 14.0305999999999997
  1.9013199999999999  6.9522800000000000 14.0305999999999997
  4.4364200000000000  6.9522800000000000 14.0305999999999997
  6.9715100000000003  6.9522800000000000 14.0305999999999997
  6.9715100000000003  1.0977300000000001 16.1005000000000003
  9.5066000000000006  1.0977300000000001 16.1005000000000003
  1.9013199999999999  1.0977300000000001 16.1005000000000003
  4.4364200000000000  1.0977300000000001 16.1005000000000003
  8.2390600000000003  3.2931800000000000 16.1005000000000003
  0.6337739999999999  3.2931800000000000 16.1005000000000003
  3.1688700000000001  3.2931800000000000 16.1005000000000003
  5.7039600000000004  3.2931800000000000 16.1005000000000003
  9.5066000000000006  5.4886400000000002 16.1005000000000003
  1.9013199999999999  5.4886400000000002 16.1005000000000003
  4.4364200000000000  5.4886400000000002 16.1005000000000003
  6.9715100000000003  5.4886400000000002 16.1005000000000003
  0.6337739999999999  7.6840999999999999 16.1005000000000003
  3.1688700000000001  7.6840999999999999 16.1005000000000003
  5.7039600000000004  7.6840999999999999 16.1005000000000003
  8.2390600000000003  7.6840999999999999 16.1005000000000003
  5.7550299999999996  1.7868599999999999 18.3898000000000010
  8.3006100000000007  1.8221900000000000 18.1535000000000011
  0.7282149999999999  1.9298400000000000 18.1224999999999987
  3.2855900000000000  1.8815900000000001 18.3454000000000015
  7.0497100000000001  4.1176500000000003 18.1051000000000002
  9.6314399999999996  4.0109700000000004 18.1912999999999982
  1.8558200000000000  4.1565500000000002 18.1110000000000007
  4.5349100000000000  4.0361300000000000 18.1686000000000014
  8.3150800000000000  6.1208400000000003 18.0496000000000016
  0.5533580000000000  6.1857100000000003 18.0753999999999984
  3.1972800000000001  6.2537300000000000 18.1298999999999992
  5.7385299999999999  6.2335399999999996 18.1402999999999999
  9.5231700000000004  8.5157100000000003 18.0803000000000011
  2.0396100000000001  8.4093999999999998 18.1576999999999984
  4.5171700000000001  8.4973500000000008 18.2017999999999986
  6.9576700000000002  8.4212600000000002 18.2010000000000005
  5.8537699999999999  0.4279430000000000 20.4531999999999989
  8.3499999999999996  0.3662920000000000 20.1809000000000012
  0.8022670000000000  0.4834490000000000 20.0387999999999984
  3.3555899999999999  0.2941080000000000 20.2271999999999998
  7.2294200000000002  2.6066799999999999 20.2900999999999989
  9.6477900000000005  2.6179899999999998 20.2441999999999993
  1.9856799999999999  2.6005600000000002 20.2391000000000005
  4.5835299999999997  2.5927600000000002 20.2308999999999983
  8.4031099999999999  4.7238199999999999 20.1981000000000002
  0.7227560000000000  4.7403199999999996 20.2742000000000004
  3.2208399999999999  4.7971500000000002 20.1058999999999983
  5.9369100000000001  4.9067999999999996 20.2086000000000006
  9.6526700000000005  6.9392199999999997 20.1537000000000006
  2.0596500000000000  7.0141200000000001 20.1765000000000008
  4.5266999999999999  7.0280600000000000 20.1693999999999996
  7.2011700000000003  6.8837500000000000 20.1731000000000016
  2.7655699999999999  3.9404100000000000  3.0575100000000002
  3.3808300000000000  4.5573800000000002  3.5259200000000002
  2.9021400000000002  4.2058600000000004  2.0992500000000001
  9.5168400000000002  7.1358100000000002  2.2297600000000002
 10.1062999999999992  7.8441099999999997  2.3901200000000000
  8.6512899999999995  7.5805699999999998  2.2313600000000000
  1.9356599999999999  6.4118100000000000  6.6272399999999996
  4.3823800000000004  2.9904000000000002 26.7484999999999999
  1.1700100000000000  5.9738499999999997  6.3140499999999999
  6.7851100000000004  2.1761499999999998  1.4255300000000000
  6.8331000000000000  3.0739700000000001  1.8746400000000001
  7.2111999999999998  1.6143700000000001  2.1435700000000000
  7.2802400000000000  2.1789700000000001 28.6014000000000017
  7.6965800000000000  2.2808500000000000 29.4890000000000008
  7.1555200000000001  1.2064999999999999 28.6031000000000013
  9.5994499999999992  6.9391999999999996 29.3229000000000006
  7.1671600000000000  4.1527200000000004 24.0381000000000000
  9.1761300000000006  6.2083700000000004 29.8260000000000005
  4.6342699999999999  5.9313300000000000 23.4741999999999997
  4.6523199999999996  4.4927599999999996 28.8384999999999998
  4.4694399999999996  6.5484700000000000 22.7839999999999989
  6.8573899999999997  4.1589099999999997 23.0719999999999992
  5.1719900000000001  1.6020900000000000  1.0604400000000000
  7.2649600000000003  3.3367599999999999 22.6672000000000011
  9.6512799999999999  4.0314600000000000 27.4182999999999986
  0.2373800000000000  4.1909099999999997 26.7698000000000000
  1.7860900000000000  8.4740300000000008 22.9044999999999987
  1.6696200000000001  0.6950220000000000 23.0731000000000002
  1.5686199999999999  1.0760000000000001 22.1970999999999989
  0.8721160000000000  1.5148400000000000  2.1187200000000002
  4.2436499999999997  1.2902100000000001  1.1886600000000000
  4.0471399999999997  1.3442799999999999  2.1339199999999998
  3.2585500000000001  2.1154799999999998 29.8342999999999989
  1.3288100000000000  3.6680700000000002 25.6397000000000013
  1.8162300000000000  4.0781299999999998 24.8277999999999999
  2.1539999999999999  3.2781500000000001 25.9779000000000018
  5.1144400000000001  4.2092299999999998 28.0482000000000014
  0.3014880000000000  7.2242899999999999 29.7445999999999984
  5.8490799999999998  3.6569900000000000 28.3349000000000011
  1.3406899999999999  6.7762000000000002 22.9510000000000005
  0.3534800000000000  6.6767300000000001 22.9491000000000014
  1.7794700000000001  5.8537100000000004 22.8881000000000014
  3.8443900000000002  2.5648200000000001 26.1309000000000005
  5.4949500000000002  5.4021400000000002 23.3299999999999983
  4.4453899999999997  2.2763000000000000 25.4603999999999999
  8.7478599999999993  6.6524799999999997 23.3570999999999991
  8.4037500000000005  6.2768100000000002 22.4832000000000001
  6.1887100000000004  4.8244400000000001  6.5298400000000001
  5.5917700000000004  4.5480000000000000  7.2549400000000004
  6.5876599999999996  5.7314499999999997  6.6908500000000002
  7.5697700000000001  5.1170000000000000 25.6052000000000000
  7.9029400000000001  4.4716500000000003 26.2532999999999994
  7.4459000000000000  5.8983600000000003 26.1911999999999985
  7.5206000000000000  6.9922399999999998  5.7232300000000000
  8.1547499999999999  6.2308500000000002  5.5049500000000000
  8.0681300000000000  7.6934800000000001  6.1067900000000002
  8.3742400000000004  6.0142600000000002 23.9996000000000009
  0.7197320000000000  1.1567499999999999  3.0093399999999999
 10.0152000000000001  1.4719500000000001  3.2433900000000002
  7.0101899999999997  3.1472899999999999  6.3404299999999996
  7.3177399999999997  2.2398699999999998  6.0058199999999999
  6.4908799999999998  1.6833899999999999  6.1703500000000000
  9.7076399999999996  4.8243000000000000 27.9737000000000009
  0.0551458000000000  2.9617300000000002  6.7988200000000001
  9.6247699999999998  2.1516400000000000  6.6916900000000004
  9.9697600000000008  3.1692000000000000  7.7230299999999996
  2.8363999999999998  2.2825899999999999 28.9927999999999990
  1.9506100000000000  1.8374800000000000 28.9572000000000003
  7.8573300000000001 -0.0393375000000000  0.4897510000000000
  8.5519400000000001  8.2522599999999997 -0.0066267200000000
  2.3920900000000000  4.6353900000000001 29.3647999999999989
  2.6481800000000000  5.0174399999999997  0.1636600000000000
  4.3243600000000004  0.8890720000000000 28.0484000000000009
  2.4351300000000000  6.0044899999999997  0.0762367000000000
  4.7231500000000004  8.7895800000000008 28.3220999999999989
  7.0603600000000002  8.2171900000000004  0.4473450000000000
  4.9875499999999997  8.4138900000000003 27.4681999999999995
  9.6557800000000000  2.0833900000000001 24.3800999999999988
  0.0514654000000000  1.6780700000000000 23.6383000000000010
  0.2381590000000000  2.4833400000000001 24.9671999999999983
  5.4457199999999997  0.6464540000000000  6.9886600000000003
  4.8264699999999996  8.7316900000000004  6.7013499999999997
 10.0593000000000004  2.1768000000000001 27.8521999999999998
  0.1933720000000000  1.3124600000000000 28.0965999999999987
  8.8852300000000000  3.9390200000000002 -0.0012607100000000
  8.1971399999999992  4.6160899999999998 30.1427000000000014
  5.2643100000000000  0.8673880000000000  7.8890000000000002
  7.7751299999999999  4.7210999999999999  0.8663459999999999
  4.5481499999999997  6.4927200000000003 26.3537999999999997
  4.8604200000000004  5.7995500000000000 26.9263000000000012
  4.6201299999999996  6.1510800000000003 25.4304999999999986
  6.2451999999999996  0.9269200000000000 24.8453000000000017
  5.5308599999999997  1.4486399999999999 24.4416000000000011
  2.7584900000000001  3.7539199999999999  6.4450500000000002
  5.8757799999999998  1.3631899999999999 23.5568999999999988
  3.5569700000000002  3.3800800000000000  6.0428600000000001
  3.4447600000000000  2.4410400000000001  6.2037500000000003
  2.5153400000000001  3.8264300000000002 22.5431999999999988
  7.8884499999999997  0.2410130000000000 25.1295999999999999
  8.1417999999999999  8.3337500000000002 24.5335000000000001
  8.6347600000000000  0.8935290000000000 24.9665999999999997
  8.5266500000000001  2.3627199999999999  3.8297800000000000
  8.8423300000000005  3.2491300000000001  3.5318600000000000
  6.8043699999999996  7.7488700000000001  4.0922200000000002
  6.7548899999999996  8.3045500000000008  3.2337300000000000
  5.8972300000000004  5.4491899999999998  2.4787499999999998
  6.0916899999999998  7.9139200000000001  2.6838099999999998
  6.2114099999999999  5.1334900000000001  1.6273000000000000
  7.9631999999999996  2.4872999999999998  4.6727600000000002
  5.8311599999999997  5.7052800000000001  0.9560830000000000
  8.9392499999999995  0.2938140000000000  6.7664200000000001
  8.9641599999999997 -0.1117900000000000  7.6177900000000003
  8.3127700000000004  1.0577900000000000  6.8024899999999997
  2.1857400000000000  7.8004699999999998  0.1542980000000000
  0.6581350000000000  0.9409620000000000 27.3417999999999992
  9.1853999999999996  1.7901499999999999  0.8602000000000000
  9.8434000000000008  2.2934899999999998  0.3245080000000000
  5.3263600000000002  4.8998100000000004  4.8087000000000000
  9.9912500000000009  1.6678400000000000 29.7697000000000003
  5.0068799999999998  5.5008400000000002  4.0381999999999998
  2.7985000000000002  8.3814100000000007  0.6186330000000000
  4.8911400000000000  6.3185099999999998  4.5677700000000003
  5.3736100000000002  7.4169600000000004  0.4328050000000000
  5.2686599999999997  7.7415599999999998 29.6329999999999991
  4.9168500000000002  8.1473300000000002  0.8437040000000000
  1.8798600000000001  6.5336100000000004  7.6018200000000000
  2.2136499999999999  1.2164299999999999  3.8084600000000002
  3.1740800000000000  1.2147500000000000  4.0499900000000002
  7.9473200000000004  7.2973200000000000 27.9624999999999986
  3.3113500000000000  2.1097700000000001  4.4154200000000001
  7.3071900000000003  7.2919900000000002 27.2069000000000010
  7.5707199999999997  8.0068999999999999 26.5919999999999987
  2.3961299999999999  4.4104700000000001 23.2862000000000009
  3.2824599999999999  4.7663200000000003 23.5440000000000005
  2.5338300000000000  7.9143699999999999 29.2911000000000001
  9.6678700000000006  5.3684700000000003  5.5716500000000000
  9.9158500000000007  5.1546000000000003  4.6354699999999998
  9.7278099999999998  4.4986899999999999  5.9871200000000000
  1.8124199999999999  0.5202000000000000 25.9058999999999990
  2.7496600000000000  0.8632560000000000 25.9783000000000008
  1.6927300000000001  0.4526410000000000 24.9418000000000006
  3.8503500000000002  7.6061399999999999  5.1492800000000001
  3.6350099999999999  8.4972999999999992  4.7551300000000003
  3.1112700000000002  7.2656499999999999  5.6870399999999997
  1.9900400000000000  6.8066800000000001 27.4451000000000001
  1.4462900000000001  7.3014599999999996 26.8343999999999987
  2.7945799999999998  6.7294499999999999 26.9319999999999986
  0.1435400000000000  4.4558600000000004  3.1011799999999998
  1.1018300000000001  4.3757099999999998  2.8747600000000002
  9.9356700000000000  5.1180000000000003  2.5159099999999999
