Cu O  H  O  H  O  H  O  H  O  H  O  H  O  H  O  H  O  H  O  H  O  H  O  H  O  H  O  H  O  H  O  H  O  H  O  H  O  H  O  H  O  H  O  H  O  H  O  H  O  H  O  H  O  H  O  H  O  H  O  H  O  H  O  H  O  H  O  H  O  H  O  H  O  H  O  H  O  H  O  H  O  H  O  H  O  H  O  H  O  H  O  H  O  H  O  H  O  H  O  H 
 1.0000000000000000
    10.1403771778044529    0.0000000000000000    0.0000000000000000
     0.0000000000000000    8.7818242399346058    0.0000000000000000
     0.0000000000000000    0.0000000000000000   30.1311271579000000
 Cu  O   H   O   H   O   H   O   H   O   H   O   H   O   H   O   H   O   H   O   H   O   H   O   H   O   H   O   H   O   H   O   H   O   H   O   H   O   H   O   H   O   H   O   H   O   H   O   H   O   H   O   H   O   H   O   H   O   H   O   H   O   H   O   H   O   H   O   H   O   H   O   H   O   H   O   H   O   H   O   H   O   H   O   H   O   H   O   H   O   H   O   H   O   H   O   H   O   H   O   H  
  96   1   2   1   2   1   2   1   2   1   2   1   2   1   2   1   2   1   2   1   2   1   2   1   2   1   2   1   2   1   2   1   1   1   2   1   2   1   3   1   2   1   2   1   2   1   1   1   2   1   2   1   2   1   2   1   2   1   1   1   2   1   3   1   2   1   2   1   2   1   2   1   2   1   2   1   2   1   2   1   2   1   2   1   4   1   2   1   1   1   2   1   2   1   2   1   2   1   2   1   2
Cartesian
  6.9670100000000001  1.1243700000000001  9.8265399999999996
  9.5472400000000004  1.0997699999999999  9.9169400000000003
  1.9505399999999999  1.1270700000000000  9.8859700000000004
  4.3741500000000002  1.0979000000000001  9.8753299999999999
  8.1358899999999998  3.2866200000000001  9.9034899999999997
  0.6209440000000001  3.2201300000000002  9.9373199999999997
  3.1520199999999998  3.2614000000000001  9.9941499999999994
  5.6452299999999997  3.2966199999999999  9.7889099999999996
  9.4505900000000000  5.4005500000000000  9.8752499999999994
  1.8476100000000000  5.4481700000000002  9.9038400000000006
  4.4161099999999998  5.5223300000000002 10.0131999999999994
  6.8834600000000004  5.4795699999999998  9.9363399999999995
  0.5451360000000000  7.6298700000000004  9.8705700000000007
  3.2735500000000002  7.7967100000000000  9.7629599999999996
  5.6748799999999999  7.6216200000000001  9.7865500000000001
  8.1966199999999994  7.6959799999999996  9.9177300000000006
  5.6785300000000003  1.8302099999999999 11.9390999999999998
  8.2380300000000002  1.7793800000000000 11.9527999999999999
  0.5450960000000000  1.7907200000000001 11.9450000000000003
  3.1894600000000000  1.7970800000000000 11.9860000000000007
  6.8437999999999999  3.9490699999999999 11.9185999999999996
  9.6764200000000002  4.0261199999999997 11.9337999999999997
  1.9167300000000000  4.0643300000000000 12.0027000000000008
  4.2918900000000004  3.9578500000000001 12.0160999999999998
  8.2255000000000003  6.1670900000000000 11.8640000000000008
  0.6298330000000000  6.1720800000000002 11.8565000000000005
  3.1233900000000001  6.2245100000000004 11.9411000000000005
  5.5561299999999996  6.2922399999999996 11.8338000000000001
  9.5616500000000002  8.3722499999999993 11.9513999999999996
  1.9599599999999999  8.3710000000000004 11.7533999999999992
  4.3802300000000001  8.4549199999999995 11.9575999999999993
  7.0116100000000001  8.4529499999999995 11.9036000000000008
  5.7039600000000004  0.3659090000000000 14.0305999999999997
  8.2390600000000003  0.3659090000000000 14.0305999999999997
  0.6337739999999999  0.3659090000000000 14.0305999999999997
  3.1688700000000001  0.3659090000000000 14.0305999999999997
  6.9715100000000003  2.5613700000000001 14.0305999999999997
  9.5066000000000006  2.5613700000000001 14.0305999999999997
  1.9013199999999999  2.5613700000000001 14.0305999999999997
  4.4364200000000000  2.5613700000000001 14.0305999999999997
  8.2390600000000003  4.7568200000000003 14.0305999999999997
  0.6337739999999999  4.7568200000000003 14.0305999999999997
  3.1688700000000001  4.7568200000000003 14.0305999999999997
  5.7039600000000004  4.7568200000000003 14.0305999999999997
  9.5066000000000006  6.9522800000000000 14.0305999999999997
  1.9013199999999999  6.9522800000000000 14.0305999999999997
  4.4364200000000000  6.9522800000000000 14.0305999999999997
  6.9715100000000003  6.9522800000000000 14.0305999999999997
  6.9715100000000003  1.0977300000000001 16.1005000000000003
  9.5066000000000006  1.0977300000000001 16.1005000000000003
  1.9013199999999999  1.0977300000000001 16.1005000000000003
  4.4364200000000000  1.0977300000000001 16.1005000000000003
  8.2390600000000003  3.2931800000000000 16.1005000000000003
  0.6337739999999999  3.2931800000000000 16.1005000000000003
  3.1688700000000001  3.2931800000000000 16.1005000000000003
  5.7039600000000004  3.2931800000000000 16.1005000000000003
  9.5066000000000006  5.4886400000000002 16.1005000000000003
  1.9013199999999999  5.4886400000000002 16.1005000000000003
  4.4364200000000000  5.4886400000000002 16.1005000000000003
  6.9715100000000003  5.4886400000000002 16.1005000000000003
  0.6337739999999999  7.6840999999999999 16.1005000000000003
  3.1688700000000001  7.6840999999999999 16.1005000000000003
  5.7039600000000004  7.6840999999999999 16.1005000000000003
  8.2390600000000003  7.6840999999999999 16.1005000000000003
  5.7164099999999998  1.8515999999999999 18.2195999999999998
  8.2554700000000008  1.8761200000000000 18.1426000000000016
  0.5613050000000001  1.9315199999999999 18.0643999999999991
  3.0975899999999998  1.7888400000000000 18.1716000000000015
  6.9851999999999999  4.0043300000000004 18.2326000000000015
  9.4695400000000003  4.1983600000000001 18.1146999999999991
  1.9349900000000000  4.1465699999999996 18.1325000000000003
  4.4204200000000000  4.1169700000000002 18.1587999999999994
  8.2153799999999997  6.2466299999999997 18.3231999999999999
  0.5553340000000000  6.2556599999999998 18.2021000000000015
  3.2593100000000002  6.3489100000000001 18.3328999999999986
  5.7375600000000002  6.2592400000000001 18.0486000000000004
  9.4038599999999999  8.4710099999999997 18.1591999999999985
  1.9847300000000001  8.4270600000000009 18.2996000000000016
  4.5086199999999996  8.4547100000000004 18.2015999999999991
  6.9553300000000000  8.5053800000000006 18.1539000000000001
  5.6253500000000001  0.5381880000000000 20.3326999999999991
  8.2571899999999996  0.4247990000000000 20.1417999999999999
  0.7093860000000000  0.4984360000000000 20.2796999999999983
  3.2140000000000000  0.4574720000000000 20.2303999999999995
  6.9583300000000001  2.5740300000000000 20.3123000000000005
  9.5113299999999992  2.6074500000000000 20.2408999999999999
  1.8905200000000000  2.5843200000000000 20.1583000000000006
  4.5412600000000003  2.7150099999999999 20.2463000000000015
  8.2343299999999999  4.8872400000000003 20.3339999999999996
  0.5978530000000000  4.7638100000000003 20.3149000000000015
  3.1387000000000000  4.8072400000000002 20.3238999999999983
  5.7633000000000001  4.9337499999999999 20.2434000000000012
  9.5410100000000000  7.0228000000000002 20.2961999999999989
  1.8927499999999999  7.0349700000000004 20.1992000000000012
  4.4561999999999999  7.0758900000000002 20.3377000000000017
  6.9668700000000001  7.0124899999999997 20.2694000000000010
  6.8663499999999997  3.0648800000000000 28.8098999999999990
  6.5613599999999996  3.4117299999999999 29.6659000000000006
  6.0085899999999999  3.0297000000000001 28.2423999999999999
  1.8139900000000000  8.5895499999999991 24.6424999999999983
  2.5774699999999999  0.2542150000000000 24.1768999999999998
  1.1585399999999999  8.4650300000000005 23.9453999999999994
  3.2734200000000002  1.5863799999999999  6.7443799999999996
 -0.1637390000000000  3.9617700000000000 28.5661999999999985
  3.5559300000000000  1.8242400000000001  7.6129899999999999
  8.2348199999999991  5.5683199999999999  6.9511599999999998
  7.3811999999999998  5.7807500000000003  6.5571599999999997
  8.2604799999999994  5.9944600000000001  7.8408800000000003
  7.1152800000000003  6.1710300000000000 27.3429000000000002
  7.3596800000000000  5.2532399999999999 27.0298000000000016
  6.1606199999999998  6.0707700000000004 27.5539999999999985
  6.6153199999999996  8.3065499999999997  0.3573880000000000
  4.5045999999999999  8.2336899999999993 26.7039000000000009
  6.1626300000000001  7.4969099999999997  0.6611740000000000
  7.1202199999999998  0.5124290000000000 28.1528999999999989
  2.4014899999999999  6.6822400000000002 29.7327000000000012
  7.2482699999999998  1.4249300000000000 28.4632000000000005
  5.0003599999999997  8.7687299999999997 26.0934999999999988
  1.2430200000000000  7.8961300000000003  7.8337599999999998
  5.8253700000000004  0.0336350000000000 26.5662999999999982
  5.5231300000000001  3.8827199999999999  1.1139900000000000
  4.6968899999999998  3.4140100000000002  1.0090500000000000
  8.5881200000000000  8.4637600000000006 22.4054000000000002
  9.2660099999999996  8.3253299999999992 23.0375000000000014
  8.8906799999999997  8.6205200000000008 23.9469999999999992
  8.5272699999999997  2.8503300000000000 25.6033000000000008
  1.5520300000000000  8.0985399999999998  6.9095599999999999
  2.0962399999999999  8.9013700000000000  6.9279299999999999
  5.9589800000000004  6.0437099999999999  5.1832000000000003
  2.5749100000000000  8.2163000000000004  0.4685640000000000
  2.4780799999999998  0.0330671000000000 29.8365000000000009
  1.8749400000000001  8.4886199999999992  1.1453599999999999
  2.5155300000000000  5.7861300000000000 29.3805000000000014
  6.5370799999999996  0.0820697000000000  1.1253299999999999
  1.7450300000000001  5.4681699999999998 28.8813999999999993
  3.6867700000000001  1.4942800000000001 23.3812999999999995
  4.5148200000000003  1.6045600000000000 23.8557999999999986
  3.9309200000000000  1.5228699999999999 22.4146999999999998
  0.1370410000000000  4.8751199999999999 28.3383000000000003
  6.8164199999999999  0.0975847000000000 29.0252000000000017
 -0.0848314000000000  4.9118300000000001 27.4438999999999993
  4.5058999999999996  2.5538500000000002 26.9317999999999991
  4.1187800000000001  3.1353000000000000 26.2091999999999992
  0.3585130000000000  2.3116800000000000  1.3715200000000001
  1.2299000000000000  2.7876200000000000  1.0267500000000001
 10.0637000000000008  1.8755500000000001  0.6335960000000000
  8.1457300000000004  3.3747699999999998  3.4592700000000001
  8.7167499999999993  3.4201700000000002  4.2167100000000000
  8.7849199999999996  3.3790300000000002  2.6733899999999999
  5.1797399999999998  0.5502040000000000  5.4008099999999999
  4.4718799999999996  0.9187780000000000  6.0015200000000002
  5.1920599999999997  1.2310200000000000  4.6516900000000003
  4.7573400000000001  1.6340100000000000 26.6261000000000010
  7.6187100000000001  3.0826799999999999 25.8582000000000001
  7.0243099999999998  2.5804700000000000 25.2790999999999997
  3.2574299999999998  5.5454800000000004  4.4149300000000000
  3.0077900000000000  4.6765400000000001  4.1237300000000001
  2.4757300000000000  4.2425100000000002  4.7969999999999997
  5.2117500000000003  4.7822300000000002  1.1317600000000001
  4.7939100000000003  2.4727700000000001  3.6488999999999998
  5.0638800000000002  2.6153400000000002  2.7301799999999998
  4.1586900000000000  3.1611099999999999  3.8818700000000002
  5.7752299999999996  6.2751999999999999  6.1241599999999998
  5.8876299999999997  7.2374499999999999  6.1578099999999996
  6.3279800000000002  1.7188900000000000 23.9257999999999988
  6.4937500000000004  0.7185279999999999 23.9315999999999995
  2.5227499999999998  6.4926399999999997  7.1890299999999998
  3.0065100000000000  5.6891600000000002  7.2118500000000001
  4.8218899999999998  6.6963100000000004  2.5897899999999998
  3.9279500000000001  5.9843000000000002  6.9676499999999999
  4.6794200000000004  6.5462400000000001  1.6097900000000001
  6.3863899999999996  2.0263100000000001 23.0138999999999996
  3.8583699999999999  6.9151400000000001  1.2954500000000000
  3.4728400000000001  6.3926400000000001 24.6301999999999985
  4.3337599999999998  6.7565200000000001 24.4370000000000012
  2.7104200000000001  7.0841200000000004 24.6454999999999984
  1.7773000000000001  3.5527899999999999  6.2417499999999997
  0.8121330000000000  3.4977700000000000  6.1548800000000004
  8.1123799999999999  0.0721834000000000 26.3072000000000017
  7.8314199999999996  8.3985800000000008 25.5204999999999984
  2.6649799999999999  7.7084500000000000  4.2876200000000004
  3.4505599999999998  7.1991300000000003  4.5926400000000003
  2.0264000000000002  4.5122200000000001  6.4904700000000002
  4.1400899999999998  7.8869300000000004  4.6946800000000000
  2.9463800000000000  3.8329200000000001 24.9451999999999998
  3.0324200000000001  3.1735400000000000 24.2166999999999994
  3.3670300000000002  4.6636499999999996 24.7119999999999997
  6.5532500000000002  6.5057900000000002 23.9625999999999983
  5.8845599999999996  7.0487700000000002 23.5278999999999989
  6.8921000000000001  0.5310240000000001  6.2037699999999996
  5.8242900000000004  6.8570200000000003 22.6183000000000014
  7.7427299999999999  0.6763100000000000  6.6674600000000002
  7.5602400000000003  0.6549730000000000  7.5748899999999999
  9.8589099999999998  2.9422899999999998 22.4296000000000006
  7.8773600000000004  5.2244299999999999 23.8692999999999991
  7.6124799999999997  4.4757100000000003 24.4177999999999997
  7.7419300000000000  5.0906599999999997 22.9152999999999984
  9.1992700000000003  7.7279400000000003 28.7473999999999990
  8.5426000000000002  8.4102200000000007 28.5017999999999994
  1.2641300000000000  8.0970200000000006 26.3828999999999994
  1.4220500000000000  7.7949299999999999 27.2913999999999994
  6.6216100000000004  4.9925100000000002  3.2679800000000001
  0.6210040000000000  7.9443799999999998 27.7900999999999989
  6.4380300000000004  5.9182499999999996  3.4608599999999998
  8.7773800000000008  6.7627100000000002 28.5033999999999992
  7.2122799999999998  6.4062000000000001  3.2072500000000002
  9.0816800000000004  3.0275699999999999  6.1018900000000000
  8.6485199999999995  3.6149399999999998  6.7542499999999999
  8.8059600000000007  2.1194400000000000  6.3475299999999999
  4.4661799999999996  6.4932900000000000 27.5636000000000010
  7.7129599999999998  7.5160999999999998 25.8847999999999985
  2.8020600000000000  4.0709299999999997  2.0408599999999999
  2.8108200000000001  3.6810399999999999  1.1335000000000000
  9.3361900000000002  6.2588900000000001  5.8010400000000004
  2.5807400000000000  4.4861599999999999  0.5407520000000000
 10.0342000000000002  6.4126399999999997  5.1281200000000000
  3.8211599999999999  6.2830300000000001 28.2727000000000004
  0.4218350000000000  7.1804500000000004  5.3816699999999997
  2.4472299999999998  1.4833499999999999 28.1454999999999984
  2.5998500000000000  0.6148350000000000 27.7134000000000000
  3.2492299999999998  1.9427099999999999 27.7432000000000016
  2.5868000000000002  2.2216000000000000  6.4405999999999999
  7.9415100000000001  0.2528830000000000  2.8920900000000000
  7.5890000000000004  1.0078800000000001  2.4721099999999998
 10.0762999999999998  5.2256099999999996 24.6101999999999990
  7.7412099999999997  1.8058300000000000  3.0122399999999998
  0.6034900000000000  5.2150999999999996 25.3014000000000010
  0.9989360000000000  4.3214499999999996 25.2898999999999994
  9.8903400000000001  3.1203900000000000 23.3623000000000012
 10.1552000000000007  4.0365900000000003 23.3045000000000009
  4.0899900000000002  6.2503000000000002 26.6620999999999988
  1.1783800000000000  8.5073100000000004  2.8548300000000002
  0.3873060000000000  7.9964500000000003  2.9469900000000000
  0.8939660000000000  0.5632760000000000  2.5851299999999999
 10.0441000000000003  2.1338699999999999 28.6411000000000016
  0.7939260000000000  2.0250900000000001 28.2078999999999986
  9.3882300000000001  1.7707200000000001 28.0548000000000002
 -0.1194120000000000  6.3878199999999996  0.6744520000000001
  9.8498699999999992  7.1230200000000004  0.0232658000000000
 10.1316000000000006  5.6887800000000004  0.0180276000000000
  0.0588256000000000  2.0451899999999998 25.6118999999999986
  0.8688720000000000  1.8726799999999999 25.9848999999999997
  0.0654918000000000  2.2504000000000000 24.6219999999999999
  8.8531899999999997  7.2317200000000001  2.9639899999999999
  9.2928499999999996  6.8184800000000001  3.7011599999999998
  9.1668299999999991  6.6904500000000002  2.1964500000000000
