Cu  O  H  O  H  O  H  O  H  O  H  O  H  O  H  O  H  O  H  O  H  O  H  O  H  O  H  O  H  O  H  O  H  O  H  O  H  O  H  O  H  O  H  O  H  O  H  O  H  O  H  O  H  O  H  O  H  O  H  O  H  O  H  O  H  O  H  O  H  O  H  O  H  O  H  O  H  O  H  O  H  O  H  O  H  O  H  O  H  O  H  O  H  O  H  O  H  O  H  O  H 
 1.0000000000000000
    10.1403771778044529    0.0000000000000000    0.0000000000000000
     0.0000000000000000    8.7818242399346058    0.0000000000000000
     0.0000000000000000    0.0000000000000000   30.1311271579000000
 Cu  O   H   O   H   O   H   O   H   O   H   O   H   O   H   O   H   O   H   O   H   O   H   O   H   O   H   O   H   O   H   O   H   O   H   O   H   O   H   O   H   O   H   O   H   O   H   O   H   O   H   O   H   O   H   O   H   O   H   O   H   O   H   O   H   O   H   O   H   O   H   O   H   O   H   O   H   O   H   O   H   O   H   O   H   O   H   O   H   O   H   O   H   O   H   O   H   O   H   O   H  
  96   1   2   1   2   1   2   1   2   1   2   1   2   1   2   1   2   1   2   1   2   1   2   1   2   1   2   1   2   1   2   1   1   1   2   1   2   1   3   1   2   1   2   1   2   1   1   1   2   1   2   1   2   1   2   1   2   1   1   1   2   1   3   1   2   1   2   1   2   1   2   1   2   1   2   1   2   1   2   1   2   1   2   1   4   1   2   1   1   1   2   1   2   1   2   1   2   1   2   1   2
Cartesian
  7.1041900000000000  0.8750329999999999  9.8268599999999999
  9.5537100000000006  1.0791700000000000  9.8396100000000004
  2.0515200000000000  1.0210200000000000  9.8146500000000003
  4.4739899999999997  1.0909000000000000  9.7579399999999996
  8.2321000000000009  3.3634200000000001  9.8578700000000001
  0.5858770000000000  3.2801700000000000  9.9315700000000007
  3.3574199999999998  3.2819799999999999  9.9020799999999998
  5.7728999999999999  3.2286400000000000  9.8552999999999997
  9.6094100000000005  5.4007600000000000  9.6609300000000005
  1.9343600000000001  5.4245099999999997  9.9125300000000003
  4.4224800000000002  5.5030200000000002  9.8333999999999993
  7.0094099999999999  5.3561199999999998  9.7901799999999994
  0.5861459999999999  7.6418799999999996  9.7648399999999995
  3.1382599999999998  7.6662100000000004  9.8936899999999994
  5.7007800000000000  7.6919700000000004  9.7666100000000000
  8.3408999999999995  7.6405900000000004  9.8982899999999994
  5.8851800000000001  1.8316800000000000 11.8889999999999993
  8.3611199999999997  1.9711500000000000 11.9090000000000007
  0.7032810000000000  1.8482700000000001 11.9412000000000003
  3.3038500000000002  1.8553100000000000 11.9048999999999996
  6.9262600000000001  4.0394800000000002 11.9322999999999997
  9.4966000000000008  4.0606799999999996 11.9376999999999995
  1.9461800000000000  4.0313800000000004 12.0191999999999997
  4.4620600000000001  4.0509199999999996 11.9341000000000008
  8.2669300000000003  6.1051399999999996 11.7545999999999999
  0.6796480000000000  6.1379400000000004 11.8988999999999994
  3.1889400000000001  6.3402300000000000 12.0333000000000006
  5.6619599999999997  6.1196900000000003 11.9953000000000003
  9.4802999999999997  8.3861899999999991 12.0422999999999991
  1.8745499999999999  8.3552900000000001 11.9154999999999998
  4.5643700000000003  8.4959900000000008 11.8469999999999995
  6.9764499999999998  8.3065099999999994 12.0272000000000006
  5.7039600000000004  0.3659090000000000 14.0305999999999997
  8.2390600000000003  0.3659090000000000 14.0305999999999997
  0.6337739999999999  0.3659090000000000 14.0305999999999997
  3.1688700000000001  0.3659090000000000 14.0305999999999997
  6.9715100000000003  2.5613700000000001 14.0305999999999997
  9.5066000000000006  2.5613700000000001 14.0305999999999997
  1.9013199999999999  2.5613700000000001 14.0305999999999997
  4.4364200000000000  2.5613700000000001 14.0305999999999997
  8.2390600000000003  4.7568200000000003 14.0305999999999997
  0.6337739999999999  4.7568200000000003 14.0305999999999997
  3.1688700000000001  4.7568200000000003 14.0305999999999997
  5.7039600000000004  4.7568200000000003 14.0305999999999997
  9.5066000000000006  6.9522800000000000 14.0305999999999997
  1.9013199999999999  6.9522800000000000 14.0305999999999997
  4.4364200000000000  6.9522800000000000 14.0305999999999997
  6.9715100000000003  6.9522800000000000 14.0305999999999997
  6.9715100000000003  1.0977300000000001 16.1005000000000003
  9.5066000000000006  1.0977300000000001 16.1005000000000003
  1.9013199999999999  1.0977300000000001 16.1005000000000003
  4.4364200000000000  1.0977300000000001 16.1005000000000003
  8.2390600000000003  3.2931800000000000 16.1005000000000003
  0.6337739999999999  3.2931800000000000 16.1005000000000003
  3.1688700000000001  3.2931800000000000 16.1005000000000003
  5.7039600000000004  3.2931800000000000 16.1005000000000003
  9.5066000000000006  5.4886400000000002 16.1005000000000003
  1.9013199999999999  5.4886400000000002 16.1005000000000003
  4.4364200000000000  5.4886400000000002 16.1005000000000003
  6.9715100000000003  5.4886400000000002 16.1005000000000003
  0.6337739999999999  7.6840999999999999 16.1005000000000003
  3.1688700000000001  7.6840999999999999 16.1005000000000003
  5.7039600000000004  7.6840999999999999 16.1005000000000003
  8.2390600000000003  7.6840999999999999 16.1005000000000003
  5.7578300000000002  1.7901400000000001 18.1890999999999998
  8.2403899999999997  1.8888900000000000 18.0836000000000006
  0.7540400000000000  1.8030400000000000 18.0699000000000005
  3.2311100000000001  1.9002600000000001 18.1414000000000009
  7.0175000000000001  3.9892400000000001 18.3585999999999991
  9.6461600000000001  4.0435499999999998 17.9838999999999984
  1.9031000000000000  3.9803799999999998 18.2218000000000018
  4.5650599999999999  4.0492499999999998 18.2135999999999996
  8.2030999999999992  6.2343000000000002 18.1429000000000009
  0.6003790000000000  6.2451200000000000 18.1478000000000002
  3.2248100000000002  6.1542000000000003 18.1122000000000014
  5.6712899999999999  6.1961599999999999 18.2045999999999992
  9.4905500000000007  8.3818199999999994 18.1102999999999987
  1.9457599999999999  8.3238099999999999 18.0577000000000005
  4.5512300000000003  8.3856199999999994 18.2071000000000005
  7.0280899999999997  8.4106900000000007 18.1616000000000000
  5.6945399999999999  0.4666040000000000 20.3812999999999995
  8.1061399999999999  0.2490450000000000 20.3444000000000003
  0.7304060000000000  0.4188490000000000 20.1225999999999985
  3.2667999999999999  0.4281810000000000 20.2706000000000017
  6.9775099999999997  2.4969600000000001 20.3230000000000004
  9.4820200000000003  2.4903100000000000 20.2769000000000013
  1.9139699999999999  2.6154299999999999 20.1740999999999993
  4.4998600000000000  2.5621399999999999 20.3055999999999983
  8.3673500000000001  4.8578599999999996 20.3872999999999998
  0.6089410000000000  4.8364700000000003 20.0691999999999986
  3.2679100000000001  4.5856500000000002 20.3532000000000011
  5.8113500000000000  4.6379200000000003 20.2317999999999998
  9.4623000000000008  7.1353000000000000 20.1927999999999983
  2.0688100000000000  7.0459600000000000 20.1814999999999998
  4.4800199999999997  6.9374000000000002 20.2302000000000000
  6.8733000000000004  6.9168099999999999 20.2895000000000003
  8.0004299999999997  7.7076599999999997 29.2042999999999999
  8.1504799999999999  8.6295000000000002 28.8638000000000012
  7.3061999999999996  7.7711600000000001 29.8969999999999985
  5.2096099999999996  8.3210599999999992  6.7454000000000001
  5.2123299999999997  8.4266500000000004  7.7208800000000002
  5.9812900000000004  8.7876899999999996  6.4090999999999996
  0.9589029999999999  2.1366000000000001  4.3337599999999998
  4.8440700000000003  1.4425300000000001 25.7755000000000010
  0.9797480000000000  2.0644499999999999  5.3179100000000004
  7.5002800000000001  1.5494200000000000 27.3397000000000006
  7.7038500000000001  0.8377190000000000 26.7147000000000006
  8.2812599999999996  2.1092599999999999 27.4512999999999998
  6.2155899999999997  2.4655800000000001 23.5125999999999991
  5.3766100000000003  2.6853400000000001 23.9560999999999993
  5.8553499999999996  2.4617300000000002 22.5925000000000011
  9.8542600000000000  0.8368880000000000  7.1381300000000003
  7.9784100000000002  0.2351420000000000  4.9877399999999996
  9.9112799999999996  0.0734980000000000  7.7661800000000003
  9.7874499999999998  3.9058099999999998 29.6449999999999996
  2.4403400000000000  8.4506300000000003  6.3139300000000000
  9.8251899999999992  4.9229700000000003 29.8107000000000006
  7.5517899999999996  0.8575230000000000  5.6215700000000002
  9.8332300000000004  3.7275900000000002 27.9997000000000007
  8.3138900000000007  0.8965560000000000  6.3139300000000000
  2.8982999999999999  2.4822299999999999 28.1708999999999996
  2.9219400000000002  3.1283699999999999 28.8576000000000015
  1.9082600000000001  6.1263399999999999 26.5498000000000012
  1.7712000000000001  6.8433200000000003 27.2010000000000005
  1.4730600000000000  7.6463400000000004 26.7700999999999993
  4.8252800000000002  5.3276300000000001  6.5894800000000000
  9.9155999999999995  3.4404800000000000 27.0015999999999998
  9.2219700000000007  3.8050700000000002 26.4325000000000010
  4.8092300000000003  7.8718700000000004 27.2957999999999998
  4.1102999999999996  5.3494999999999999 24.3499000000000017
  4.9817999999999998  5.2004599999999996 24.7333999999999996
  3.4451999999999998  4.9026500000000004 24.9543999999999997
  2.4471799999999999  0.5865310000000000  6.4188599999999996
  0.6024760000000000  1.2642100000000001  7.1909999999999998
  3.2999299999999998  0.8968330000000000  6.6460400000000002
  5.4631499999999997  4.9850500000000002  1.8292400000000000
  4.7237900000000002  4.4269299999999996  2.1058900000000000
  5.9947999999999997  5.3867599999999998  2.5950299999999999
  4.8134199999999998  0.4636450000000000 25.7880000000000003
  8.8180200000000006  3.7473900000000002 29.7954000000000008
  4.1652100000000001  0.2675380000000000 25.1093000000000011
  4.4373500000000003  3.0364800000000001  6.5425599999999999
  5.1979899999999999  2.8102499999999999  5.9067100000000003
  1.7931100000000000  4.3499900000000000  2.8944299999999998
  1.6060000000000001  3.6219500000000000  3.5091500000000000
  1.9740599999999999  5.1311000000000000  3.5137000000000000
  0.8704190000000001  1.4317400000000000  0.4483920000000000
  0.5655240000000000  2.1709200000000002 -0.0893565000000000
  1.6440200000000000  1.2162599999999999 30.0338999999999992
  9.1676500000000001  2.9825599999999999 24.0440000000000005
  8.1942900000000005  2.6815500000000001 23.8457000000000008
  9.2143999999999995  3.8002899999999999 23.4872000000000014
  4.8797499999999996  3.1008200000000001  7.3902099999999997
  5.1544900000000000  5.9075499999999996  5.8875599999999997
  5.2155899999999997  6.8166900000000004  6.2837699999999996
  9.4281600000000001  6.1475299999999997  2.2718799999999999
  9.1625300000000003  5.2906199999999997  2.5502600000000002
  9.9597999999999995  4.8607699999999996  2.8277199999999998
  3.7142499999999998  1.9965599999999999 28.3673000000000002
  3.3775400000000002  3.5427000000000000  0.5911160000000000
  2.5570300000000001  3.7211400000000001  1.0391300000000001
  3.7355499999999999  2.8006899999999999  1.1029000000000000
  4.3949999999999996  7.1094600000000003 27.7392000000000003
  3.4669800000000000  7.2414699999999996 27.4963000000000015
  8.7348700000000008  7.6431600000000000 23.5485000000000007
  9.5123099999999994  8.3055699999999995 23.6539999999999999
  7.7481200000000001  8.2271400000000003 24.7133000000000003
  7.1588599999999998  8.0277300000000000 25.5181000000000004
  5.4847999999999999  3.2755700000000001 26.5472999999999999
  6.2259300000000000  8.2513500000000004 25.2879000000000005
  4.6746800000000004  3.0969699999999998 26.0265999999999984
  8.3961400000000008  7.8611700000000004 22.6492000000000004
  3.9256000000000002  3.0120000000000000 26.5809999999999995
  2.4802399999999998  6.3648100000000003  4.6184799999999999
  2.5420099999999999  7.2268200000000000  4.1591899999999997
  3.3450400000000000  6.1173500000000001  4.9305000000000003
  2.1943199999999998  7.1717700000000004  1.0661400000000001
  2.3201600000000000  6.2927799999999996  1.4386800000000000
  5.3031899999999998  6.6532499999999999  0.9540350000000000
  5.4376199999999999  7.4168500000000002  0.4058530000000000
  3.5349599999999999  7.0240700000000000 24.0376000000000012
  2.9224899999999998  7.8179999999999996 23.9061999999999983
  1.3736999999999999  7.1857899999999999  0.5862330000000000
  3.1158500000000000  7.9467699999999999 22.9577999999999989
  1.4337299999999999  3.1031599999999999  6.5523300000000004
  1.2536099999999999  4.0303699999999996  6.2692800000000002
  2.3931600000000000  3.0762900000000002  6.6090900000000001
  9.9216300000000004  7.6108700000000002  4.9295700000000000
  9.2098099999999992  7.6576599999999999  4.3729300000000002
  8.3619299999999992  5.5018300000000000  7.6191899999999997
  9.4634400000000003  8.1626200000000004  3.5644399999999998
  9.0711800000000000  5.1580100000000000  7.0181600000000000
  9.5481900000000000  4.4450500000000002  7.4311100000000003
  9.6267300000000002  6.9250499999999997 29.2937000000000012
  6.4887899999999998  2.8065799999999999  4.2529500000000002
  6.7849199999999996  3.7796500000000002  4.1450300000000002
  7.1881199999999996  2.2414000000000001  4.6169599999999997
  2.7169800000000000  1.8516400000000000 23.3012000000000015
  2.6536000000000000  2.2535900000000000 22.3196000000000012
  7.9196900000000001  5.8493599999999999  4.3878800000000000
  7.0690200000000001  5.4200600000000003  4.2879399999999999
  6.5022399999999996  3.9642200000000001 29.0037999999999982
  6.5225900000000001  5.7044600000000001  5.0390800000000002
  6.6825700000000001  3.4783100000000000 29.8628999999999998
  2.5968000000000000  2.7129200000000000 23.8106000000000009
  6.3023899999999999  3.9918399999999998  0.4620430000000000
  2.6302699999999999  0.0689487000000000  3.4328300000000000
  1.8901800000000000  0.6527030000000000  3.7063600000000001
  2.2377600000000002  8.6587099999999992  2.5258200000000000
  7.8911699999999998  5.4783999999999997 26.0226000000000006
  5.0694499999999998  7.1079999999999997 29.7221000000000011
  5.3518200000000000  2.4294199999999999  3.0184700000000002
  4.8651299999999997  1.8945799999999999  2.2980100000000001
  0.9246060000000000  0.6985340000000000 25.9944999999999986
  4.3090900000000003  1.2620199999999999  2.7605300000000002
  1.2611699999999999  0.5427530000000000 26.8795000000000002
  7.8806799999999999  6.4066999999999998 26.2411999999999992
  1.6833199999999999  1.3816100000000000 27.2063999999999986
  4.9981400000000002  1.1807600000000000 29.2081000000000017
  5.8492899999999999  1.4099500000000000 28.8998999999999988
  5.1889399999999997  0.4720290000000000 29.7617000000000012
  0.0705891000000000  1.8861300000000001  4.0015999999999998
  1.0685400000000000  3.9254300000000000 25.9061999999999983
  1.7120000000000000  4.3283199999999997 25.2728999999999999
  1.1292599999999999  0.6904120000000000 23.9649000000000001
  1.2037700000000000  4.6675700000000004 24.5360000000000014
  0.2611970000000000  0.6465980000000000 24.3311999999999991
 -0.1736160000000000  1.5322000000000000 24.1085999999999991
  0.2571960000000000  6.3608599999999997 29.2357000000000014
  0.7597480000000000  6.6470200000000004 28.3667000000000016
  7.6369199999999999  5.4781399999999998 25.0330000000000013
  9.5124399999999998  0.1097500000000000  2.1038600000000001
  0.0383481000000000  0.3604940000000000  1.3691300000000000
  8.6478400000000004  0.3896310000000000  1.6748400000000001
  6.9908799999999998  5.0545700000000000 23.4585000000000008
  7.0489300000000004  5.8633499999999996 22.8917000000000002
  6.4200499999999998  4.4775900000000002 22.9725999999999999
  0.2574360000000000  5.3251200000000001 23.3053999999999988
  9.6160300000000003  5.8312200000000001 23.6198000000000015
  0.1286450000000000  5.2714600000000003 22.2848000000000006
  7.1044400000000003  1.0426299999999999  1.0896699999999999
  6.2238199999999999  1.0362300000000000  1.5421600000000000
  7.1263899999999998  1.8387899999999999  0.4266360000000000
  5.9150400000000003  4.8026200000000001 27.6163999999999987
  6.5328200000000001  5.1468100000000003 26.9161000000000001
  5.3119699999999996  5.4786999999999999 27.8510999999999989
