Cu  O  H  O  H  O  H  O  H  O  H  O  H  O  H  O  H  O  H  O  H  O  H  O  H  O  H  O  H  O  H  O  H  O  H  O  H  O  H  O  H  O  H  O  H  O  H  O  H  O  H  O  H  O  H  O  H  O  H  O  H  O  H  O  H  O  H  O  H  O  H  O  H  O  H  O  H  O  H  O  H  O  H  O  H  O  H  O  H  O  H  O  H  O  H  O  H  O  H  O  H 
 1.0000000000000000
    10.1403771778044529    0.0000000000000000    0.0000000000000000
     0.0000000000000000    8.7818242399346058    0.0000000000000000
     0.0000000000000000    0.0000000000000000   30.1311271579000000
 Cu  O   H   O   H   O   H   O   H   O   H   O   H   O   H   O   H   O   H   O   H   O   H   O   H   O   H   O   H   O   H   O   H   O   H   O   H   O   H   O   H   O   H   O   H   O   H   O   H   O   H   O   H   O   H   O   H   O   H   O   H   O   H   O   H   O   H   O   H   O   H   O   H   O   H   O   H   O   H   O   H   O   H   O   H   O   H   O   H   O   H   O   H   O   H   O   H   O   H   O   H  
  96   1   2   1   2   1   2   1   2   1   2   1   2   1   2   1   2   1   2   1   2   1   2   1   2   1   2   1   2   1   2   1   1   1   2   1   2   1   3   1   2   1   2   1   2   1   1   1   2   1   2   1   2   1   2   1   2   1   1   1   2   1   3   1   2   1   2   1   2   1   2   1   2   1   2   1   2   1   2   1   2   1   2   1   4   1   2   1   1   1   2   1   2   1   2   1   2   1   2   1   2
Cartesian
  6.8887499999999999  1.1793000000000000  9.8556500000000007
  9.4184599999999996  1.1144200000000000  9.8113100000000006
  1.6439900000000001  1.3394500000000000  9.8765099999999997
  4.2843799999999996  1.2064500000000000  9.8959399999999995
  8.0803499999999993  3.3131400000000002  9.9918200000000006
  0.4539170000000000  3.3946800000000001  9.8729800000000001
  3.1256599999999999  3.3051800000000000  9.8493399999999998
  5.6728800000000001  3.3367599999999999  9.7990800000000000
  9.4040900000000001  5.4854200000000004  9.7440099999999994
  1.8681800000000000  5.5428699999999997  9.8140599999999996
  4.3987999999999996  5.5152999999999999  9.9068799999999992
  6.9714999999999998  5.4934500000000002  9.8788599999999995
  0.5842730000000000  7.7626200000000001  9.6917000000000009
  3.0772300000000001  7.8179699999999999  9.9086400000000001
  5.7559500000000003  7.7346800000000000  9.9060199999999998
  8.2073000000000000  7.7506800000000000  9.9360599999999994
  5.6709100000000001  1.8112900000000001 11.8914000000000009
  8.2820000000000000  1.7727700000000000 12.0098000000000003
  0.5975440000000000  1.8803300000000001 12.0153999999999996
  3.1916699999999998  1.8427899999999999 11.9757999999999996
  6.9096099999999998  4.0850700000000000 11.9359999999999999
  9.4249600000000004  4.1252199999999997 12.0371000000000006
  1.8516300000000001  4.0278700000000001 11.9613999999999994
  4.4553700000000003  4.0777999999999999 11.9534000000000002
  8.2695299999999996  6.2376100000000001 11.9347999999999992
  0.5271830000000000  6.2563399999999998 11.8892000000000007
  3.2123400000000002  6.2103400000000004 11.8673000000000002
  5.7368100000000002  6.3092899999999998 12.0318000000000005
  9.5190800000000007  8.5706299999999995 11.9208999999999996
  1.8286700000000000  8.4291800000000006 11.7365999999999993
  4.5121799999999999  8.4637600000000006 11.9433000000000007
  6.9580500000000001  8.4778800000000007 11.9772999999999996
  5.7039600000000004  0.3659090000000000 14.0305999999999997
  8.2390600000000003  0.3659090000000000 14.0305999999999997
  0.6337739999999999  0.3659090000000000 14.0305999999999997
  3.1688700000000001  0.3659090000000000 14.0305999999999997
  6.9715100000000003  2.5613700000000001 14.0305999999999997
  9.5066000000000006  2.5613700000000001 14.0305999999999997
  1.9013199999999999  2.5613700000000001 14.0305999999999997
  4.4364200000000000  2.5613700000000001 14.0305999999999997
  8.2390600000000003  4.7568200000000003 14.0305999999999997
  0.6337739999999999  4.7568200000000003 14.0305999999999997
  3.1688700000000001  4.7568200000000003 14.0305999999999997
  5.7039600000000004  4.7568200000000003 14.0305999999999997
  9.5066000000000006  6.9522800000000000 14.0305999999999997
  1.9013199999999999  6.9522800000000000 14.0305999999999997
  4.4364200000000000  6.9522800000000000 14.0305999999999997
  6.9715100000000003  6.9522800000000000 14.0305999999999997
  6.9715100000000003  1.0977300000000001 16.1005000000000003
  9.5066000000000006  1.0977300000000001 16.1005000000000003
  1.9013199999999999  1.0977300000000001 16.1005000000000003
  4.4364200000000000  1.0977300000000001 16.1005000000000003
  8.2390600000000003  3.2931800000000000 16.1005000000000003
  0.6337739999999999  3.2931800000000000 16.1005000000000003
  3.1688700000000001  3.2931800000000000 16.1005000000000003
  5.7039600000000004  3.2931800000000000 16.1005000000000003
  9.5066000000000006  5.4886400000000002 16.1005000000000003
  1.9013199999999999  5.4886400000000002 16.1005000000000003
  4.4364200000000000  5.4886400000000002 16.1005000000000003
  6.9715100000000003  5.4886400000000002 16.1005000000000003
  0.6337739999999999  7.6840999999999999 16.1005000000000003
  3.1688700000000001  7.6840999999999999 16.1005000000000003
  5.7039600000000004  7.6840999999999999 16.1005000000000003
  8.2390600000000003  7.6840999999999999 16.1005000000000003
  5.7730699999999997  1.9819500000000001 18.2582999999999984
  8.2342499999999994  1.9100600000000001 18.1936000000000000
  0.6738880000000000  1.6856800000000001 18.2168999999999990
  3.2501300000000000  1.7321899999999999 18.1293000000000006
  6.9988799999999998  4.0486700000000004 18.1743999999999986
  9.4980300000000000  3.9871200000000000 18.1500999999999983
  1.8848600000000000  3.9844499999999998 18.1570000000000000
  4.4485200000000003  3.9929000000000001 18.1449999999999996
  8.2300799999999992  6.2362700000000002 18.1616999999999997
  0.6463110000000000  6.1783799999999998 18.1997000000000000
  3.2287499999999998  6.1857199999999999 18.1519000000000013
  5.7776800000000001  6.3224299999999998 18.1311000000000000
  9.5033799999999999  8.3820700000000006 18.1488000000000014
  1.9533700000000001  8.3806700000000003 18.1910999999999987
  4.4542999999999999  8.3675499999999996 18.2631000000000014
  7.0000000000000000  8.5349799999999991 18.2302999999999997
  5.6454599999999999  0.2028570000000000 20.3167000000000009
  8.2374700000000001  0.2545050000000000 20.1817999999999991
  0.6269990000000000  0.2968030000000000 20.3685000000000009
  3.1723499999999998  0.3009420000000000 20.2577999999999996
  7.0930700000000000  2.3964300000000001 20.4136999999999986
  9.5175000000000001  2.4617800000000001 20.2574000000000005
  1.8521600000000000  2.4055800000000001 20.2173000000000016
  4.4109800000000003  2.3469000000000002 20.2762999999999991
  8.2045600000000007  4.6906999999999996 20.3356999999999992
  0.6384720000000000  4.6091800000000003 20.2922000000000011
  3.2389500000000000  4.8414799999999998 20.1404999999999994
  5.6159999999999997  4.5748300000000004 20.1352000000000011
  9.5620899999999995  6.8279300000000003 20.3382000000000005
  1.9782999999999999  6.8858199999999998 20.1103999999999985
  4.4678100000000001  6.8318500000000002 20.1874000000000002
  7.1623200000000002  6.8407400000000003 20.2036000000000016
  8.5507200000000001  8.4977499999999999  6.5558199999999998
  8.4412199999999995  8.6807700000000008  7.5135300000000003
  9.4292599999999993  8.0014099999999999  6.5495599999999996
  5.5136300000000000  2.1318100000000002  0.1208810000000000
  5.8885399999999999  3.0111100000000000  0.3366600000000000
  5.6138800000000000  2.1305000000000001 29.2537999999999982
  6.0117799999999999  8.1194699999999997  5.3251200000000001
  4.4951299999999996  5.0014000000000003  7.0145099999999996
  6.8555599999999997  8.1709700000000005  5.7605100000000000
  3.8119800000000001  7.2838500000000002  7.1476300000000004
  4.2299899999999999  7.3253000000000004  8.0146499999999996
  4.4954200000000002  7.6877700000000004  6.5099099999999996
  4.7826199999999996  6.7809100000000004 26.8133000000000017
  5.4700400000000000  7.2723699999999996 26.3489000000000004
  5.3147200000000003  6.1307499999999999 27.2457999999999991
  1.2754900000000000  4.4404000000000003  7.0551899999999996
  4.5060200000000004  4.4111000000000002  4.8270499999999998
  0.9523660000000000  3.6340800000000000  7.4248799999999999
  8.2813300000000005  0.9377900000000000 23.6459000000000010
  2.2743099999999998  2.3119000000000001  0.1044550000000000
  9.0156299999999998  0.3660210000000000 23.4424999999999990
  4.4297199999999997  4.1549699999999996  3.8612899999999999
  5.5807399999999996  5.5371899999999998  3.3360400000000001
  5.2724700000000002  3.5897500000000000  3.7788400000000002
  3.8013100000000000  7.7835000000000001 23.2581999999999987
  3.7397399999999998  8.3688099999999999 22.5045999999999999
  5.1749299999999998  2.9147099999999999 24.2470999999999997
  6.0300099999999999  3.2723599999999999 24.6036000000000001
  6.6093200000000003  3.2326199999999998 23.8994999999999997
  3.4151099999999999  6.9149000000000003 27.8969999999999985
  6.2211999999999996  5.7407199999999996  2.6339399999999999
  7.0891799999999998  5.9068399999999999  3.0292599999999998
  2.6573099999999998  8.1898700000000009  2.9563100000000002
  6.6363200000000004  2.5836199999999998  4.0749199999999997
  7.3141400000000001  2.8621599999999998  3.3610300000000000
  7.0799399999999997  2.9646200000000000  4.8209099999999996
  2.7562199999999999  2.0089500000000000  0.8760250000000001
  2.2602500000000001  4.2780500000000004  7.0821600000000000
  3.6184599999999998  1.8581700000000001  0.4373350000000000
  2.1636899999999999  5.5683999999999996  0.7554180000000000
  2.0118900000000002  4.9326999999999996  1.5522100000000001
  2.1549600000000000  6.4905200000000001  1.1437700000000000
  3.8985200000000000  4.4778599999999997  6.4810900000000000
  7.8245100000000001  1.1373200000000001 22.8432999999999993
  4.2285199999999996  3.5833300000000001  6.7080599999999997
  1.9253499999999999  3.8146599999999999  2.7372000000000001
  2.5984400000000001  4.0012100000000004  3.4276800000000001
  8.8717199999999998  6.3278999999999996  3.3308700000000000
  9.1488600000000009  7.2507200000000003  3.3722699999999999
  9.2887400000000007  5.9534900000000004  2.4780700000000002
  0.1354450000000000  1.4403999999999999  5.1764099999999997
  9.5947700000000005  1.0356500000000000  5.7268100000000004
  0.9347720000000000  1.4334300000000000  5.7020400000000002
  6.7046700000000001  8.6872900000000008  2.1605099999999999
  6.1797599999999999  0.4398430000000000  1.5829000000000000
  6.2353600000000000  7.8546800000000001  2.1359800000000000
  2.3318400000000001  3.1533000000000002  2.2189199999999998
  2.8906200000000002  7.2015200000000004 28.6782000000000004
  2.7381799999999998  6.4597100000000003 29.2618000000000009
  6.7760300000000004  6.7358000000000002 23.7804000000000002
  7.2522500000000001  6.0021199999999997 23.3856000000000002
  6.6813799999999999  5.7011700000000003 22.6362999999999985
  3.8426800000000001  6.8598299999999997 22.8947000000000003
  7.4042899999999996  4.5445900000000004  6.3388700000000000
  7.5118600000000004  4.4836799999999997  7.3274299999999997
  7.9432200000000002  5.3472600000000003  6.1198800000000002
  2.4706899999999998  8.1615500000000001  1.9437899999999999
  2.4441400000000000  0.2598660000000000  1.6100699999999999
  7.9462200000000003  5.4732599999999998 26.0284000000000013
  8.0417600000000000  6.4542099999999998 26.0912000000000006
  9.5954899999999999  8.0362799999999996 25.4481999999999999
  9.1067000000000000  7.9142999999999999 26.3001000000000005
  9.5343499999999999  0.7567930000000000 29.8440000000000012
  8.6655499999999996  8.7637800000000006 26.3427000000000007
  8.7683800000000005  0.8490790000000000  0.2741580000000000
  7.4950500000000000  5.1960100000000002 25.1863999999999990
  9.0663300000000007  0.7105980000000000  1.1867099999999999
  7.9377700000000004  1.7732100000000000 26.4451999999999998
  8.3809500000000003  2.5585800000000001 26.8268999999999984
  7.9818899999999999  1.8612800000000000 25.4797000000000011
  7.8235999999999999  7.0961900000000000 29.5183000000000000
  6.8843399999999999  7.1807900000000000 29.4830000000000005
  5.6557800000000000  1.6105499999999999  6.6364900000000002
  4.8027199999999999  1.9339700000000000  7.0217200000000002
  2.5907399999999998  8.5194299999999998  5.0749800000000000
  2.6713700000000000  7.8130800000000002  4.4188000000000001
  8.1474499999999992  8.0331600000000005 29.8080999999999996
  1.9410600000000000  7.2339099999999998  4.5868000000000002
  0.3491650000000000  8.1082599999999996 24.0850000000000009
  0.8976400000000000  0.1099350000000000 24.1131999999999991
  0.7386560000000000  7.2454000000000001 23.8228000000000009
 10.1263000000000005  6.1094999999999997  4.6566500000000000
  0.3655400000000000  6.3678400000000002  5.4862299999999999
  9.1654900000000001  4.2455900000000000 22.6297999999999995
  0.5765760000000000  5.6475799999999996  6.0846799999999996
  9.5004799999999996  4.1398599999999997 23.5349000000000004
  8.9811899999999998  4.7420000000000000 24.0077999999999996
  1.3534100000000000  8.0351199999999992 28.5750999999999991
  5.5596899999999998  1.4347300000000001 27.8108000000000004
  4.6958299999999999  1.4251300000000000 27.2979999999999983
  6.2393200000000002  1.4817199999999999 27.1168000000000013
  9.2268799999999995  3.8339200000000000 28.2167999999999992
  0.1026010000000000  3.6230500000000001 28.2515999999999998
  7.5073400000000001  4.3569100000000001  0.2228080000000000
  6.6095600000000001  4.4636300000000002  0.4358540000000000
  1.6486000000000001  2.2719299999999998 24.2195000000000000
  6.5125799999999998  4.9853600000000000  1.2318499999999999
  0.9752260000000000  2.2094399999999998 24.9119999999999990
  9.0418000000000003  4.5785999999999998 27.6021000000000001
  0.2172950000000000  2.6627000000000001 24.4741999999999997
  3.6749800000000001  3.9958300000000002 27.2402000000000015
  3.7889800000000000  3.2825299999999999 26.5227000000000004
  4.5580800000000004  4.0776599999999998 27.6366000000000014
  8.9530300000000000  3.3758200000000000  2.7079000000000000
  5.0212199999999996  2.1504599999999998  8.0064100000000007
  3.1241500000000002  1.0714600000000001  6.8628099999999996
  2.2768999999999999  0.6521320000000000  6.5532800000000000
  8.8979400000000002  5.9935600000000004  0.3429030000000000
  2.4952399999999999  8.5590799999999998  6.8886500000000002
  9.5374800000000004  5.4102499999999996  0.8071940000000000
  9.5551700000000004  3.8698299999999999  2.1546699999999999
  0.2964400000000000  5.6692900000000002  0.5699260000000000
  6.1630099999999999  8.3704499999999999 24.8646999999999991
  6.9904500000000001 -0.2824220000000000 24.4171000000000014
  5.4566200000000000  8.5351599999999994 24.2474999999999987
  6.0648000000000000  8.4703700000000008  4.3939500000000002
  4.5229900000000001  7.7126700000000001 29.3851000000000013
  5.3707799999999999  8.1075999999999997 29.5445999999999991
  6.3232499999999998  4.8448599999999997 28.9174000000000007
  5.6356900000000003  8.6405499999999993 28.8336000000000006
  6.1093500000000001  4.8004600000000002 27.9590999999999994
  6.8665000000000003  4.6886099999999997 27.3812999999999995
  0.6878110000000000  8.7203400000000002 28.5057000000000009
  0.0450518000000000  8.4015699999999995 27.8241000000000014
  9.5791199999999996  2.7810000000000001  3.2145100000000002
  1.7194100000000001  2.7948200000000001 28.5019999999999989
  1.5756300000000001  1.8794200000000001 28.2478000000000016
  2.4927299999999999  3.1696300000000002 28.0529000000000011
 10.0067000000000004  8.8254500000000000  3.0065900000000001
  0.7597810000000000  8.8869299999999996  2.6411400000000000
 10.1325000000000003  0.6661030000000000  3.8288400000000000
  3.4202499999999998  3.3253100000000000 23.2549999999999990
  3.2488299999999999  4.1932499999999999 23.7594999999999992
  3.7745000000000002  3.6224200000000000 22.4033000000000015
  3.0744199999999999  0.6588410000000000 26.2672999999999988
  2.2088199999999998  0.9059050000000000 25.8887999999999998
  3.3423799999999999  8.5498200000000004 25.9433000000000007
  1.8385499999999999  5.7004999999999999 23.3450999999999986
  1.6313400000000000  5.8134499999999996 22.3959000000000010
  1.3501900000000000  4.8938400000000000 23.5082999999999984
