Cu O  H  O  H  O  H  O  H  O  H  O  H  O  H  O  H  O  H  O  H  O  H  O  H  O  H  O  H  O  H  O  H  O  H  O  H  O  H  O  H  O  H  O  H  O  H  O  H  O  H  O  H  O  H  O  H  O  H  O  H  O  H  O  H  O  H  O  H  O  H  O  H  O  H  O  H  O  H  O  H  O  H  O  H  O  H  O  H  O  H  O  H  O  H  O  H  O  H  O  H 
 1.0000000000000000
    10.1403771778044529    0.0000000000000000    0.0000000000000000
     0.0000000000000000    8.7818242399346058    0.0000000000000000
     0.0000000000000000    0.0000000000000000   30.1311271579000000
 Cu  O   H   O   H   O   H   O   H   O   H   O   H   O   H   O   H   O   H   O   H   O   H   O   H   O   H   O   H   O   H   O   H   O   H   O   H   O   H   O   H   O   H   O   H   O   H   O   H   O   H   O   H   O   H   O   H   O   H   O   H   O   H   O   H   O   H   O   H   O   H   O   H   O   H   O   H   O   H   O   H   O   H   O   H   O   H   O   H   O   H   O   H   O   H   O   H   O   H   O   H  
  96   1   2   1   2   1   2   1   2   1   2   1   2   1   2   1   2   1   2   1   2   1   2   1   2   1   2   1   2   1   2   1   1   1   2   1   2   1   3   1   2   1   2   1   2   1   1   1   2   1   2   1   2   1   2   1   2   1   1   1   2   1   3   1   2   1   2   1   2   1   2   1   2   1   2   1   2   1   2   1   2   1   2   1   4   1   2   1   1   1   2   1   2   1   2   1   2   1   2   1   2
Cartesian
  6.8502000000000001  1.0981700000000001  9.9436300000000006
  9.5755199999999991  1.0528500000000001  9.9579799999999992
  2.0165799999999998  1.0918300000000001  9.7220600000000008
  4.4233700000000002  0.9072850000000000  9.9738900000000008
  8.1841600000000003  3.1941500000000000  9.9254400000000000
  0.7223980000000000  3.3213499999999998  9.8139800000000008
  3.1752199999999999  3.1684600000000001 10.0053000000000001
  5.6656100000000000  3.2352900000000000  9.8145600000000002
  9.6189699999999991  5.5043400000000000  9.7414100000000001
  2.0429499999999998  5.4705500000000002 10.0912000000000006
  4.4965999999999999  5.4860100000000003  9.7752900000000000
  7.0328600000000003  5.4493799999999997  9.9256700000000002
  0.7572630000000000  7.6413399999999996  9.9444900000000001
  3.2386400000000002  7.5635100000000000  9.7978000000000005
  5.7189399999999999  7.6827100000000002  9.9439499999999992
  8.1917799999999996  7.6290600000000000  9.9358500000000003
  5.7047499999999998  1.8964900000000000 11.9792000000000005
  8.2945200000000003  1.8022800000000001 12.0325000000000006
  0.6113870000000000  1.8899400000000000 12.0122999999999998
  3.2015199999999999  1.8729199999999999 12.0452999999999992
  6.9219700000000000  4.1253000000000002 12.0838000000000001
  9.4855699999999992  4.0363100000000003 11.8149999999999995
  1.9666300000000001  4.0473999999999997 12.0004000000000008
  4.4779700000000000  4.0312000000000001 11.8437999999999999
  8.3222400000000007  6.1446600000000000 11.8200000000000003
  0.5130230000000000  6.1748500000000002 12.0023000000000000
  3.3505199999999999  6.3234100000000000 11.9619000000000000
  5.7697700000000003  6.2123900000000001 12.0536999999999992
  9.5918700000000001  8.3962800000000009 11.9460999999999995
  2.0697600000000000  8.4845900000000007 11.8694000000000006
  4.5052099999999999  8.4481400000000004 11.9208999999999996
  7.0601700000000003  8.3637400000000000 11.9634000000000000
  5.7039600000000004  0.3659090000000000 14.0305999999999997
  8.2390600000000003  0.3659090000000000 14.0305999999999997
  0.6337739999999999  0.3659090000000000 14.0305999999999997
  3.1688700000000001  0.3659090000000000 14.0305999999999997
  6.9715100000000003  2.5613700000000001 14.0305999999999997
  9.5066000000000006  2.5613700000000001 14.0305999999999997
  1.9013199999999999  2.5613700000000001 14.0305999999999997
  4.4364200000000000  2.5613700000000001 14.0305999999999997
  8.2390600000000003  4.7568200000000003 14.0305999999999997
  0.6337739999999999  4.7568200000000003 14.0305999999999997
  3.1688700000000001  4.7568200000000003 14.0305999999999997
  5.7039600000000004  4.7568200000000003 14.0305999999999997
  9.5066000000000006  6.9522800000000000 14.0305999999999997
  1.9013199999999999  6.9522800000000000 14.0305999999999997
  4.4364200000000000  6.9522800000000000 14.0305999999999997
  6.9715100000000003  6.9522800000000000 14.0305999999999997
  6.9715100000000003  1.0977300000000001 16.1005000000000003
  9.5066000000000006  1.0977300000000001 16.1005000000000003
  1.9013199999999999  1.0977300000000001 16.1005000000000003
  4.4364200000000000  1.0977300000000001 16.1005000000000003
  8.2390600000000003  3.2931800000000000 16.1005000000000003
  0.6337739999999999  3.2931800000000000 16.1005000000000003
  3.1688700000000001  3.2931800000000000 16.1005000000000003
  5.7039600000000004  3.2931800000000000 16.1005000000000003
  9.5066000000000006  5.4886400000000002 16.1005000000000003
  1.9013199999999999  5.4886400000000002 16.1005000000000003
  4.4364200000000000  5.4886400000000002 16.1005000000000003
  6.9715100000000003  5.4886400000000002 16.1005000000000003
  0.6337739999999999  7.6840999999999999 16.1005000000000003
  3.1688700000000001  7.6840999999999999 16.1005000000000003
  5.7039600000000004  7.6840999999999999 16.1005000000000003
  8.2390600000000003  7.6840999999999999 16.1005000000000003
  5.6968399999999999  1.8574100000000000 18.2226999999999997
  8.2629699999999993  1.7488999999999999 18.1779000000000011
  0.7829840000000000  1.8753400000000000 18.1228000000000016
  3.2703899999999999  1.7004600000000001 18.2262999999999984
  7.1453600000000002  4.0308900000000003 18.1925999999999988
  9.5750899999999994  3.9377399999999998 18.1780000000000008
  2.0138900000000000  4.0039800000000003 18.2074999999999996
  4.4688999999999997  4.0030500000000000 18.1152000000000015
  8.2443700000000000  6.1252199999999997 18.3034999999999997
  0.6238180000000000  6.2096700000000000 17.9720000000000013
  3.1164600000000000  6.2587299999999999 18.1183000000000014
  5.7021199999999999  6.0962100000000001 18.2641999999999989
  9.4914600000000000  8.4530399999999997 18.1920999999999999
  1.8360399999999999  8.2682199999999995 18.1694999999999993
  4.4048999999999996  8.4140300000000003 18.1392999999999986
  6.8063300000000000  8.3093299999999992 18.1856000000000009
  5.7345400000000000  0.2862680000000000 20.2677000000000014
  8.1642600000000005  0.2462530000000000 20.2914999999999992
  0.4712390000000000  0.3092350000000000 20.1923999999999992
  3.1669200000000002  0.2559900000000000 20.2879000000000005
  7.1042100000000001  2.5037799999999999 20.1595000000000013
  9.4541599999999999  2.4830999999999999 20.2290999999999990
  1.7869699999999999  2.5698500000000002 20.2901999999999987
  4.3826000000000001  2.5825999999999998 20.1642000000000010
  8.1870499999999993  4.6316699999999997 20.4622999999999990
  0.5477330000000000  4.7534000000000001 20.2319999999999993
  3.1711999999999998  4.6526199999999998 20.3083999999999989
  5.6687900000000004  4.6392600000000002 20.2301000000000002
  9.5774000000000008  6.9525800000000002 20.1536000000000008
  1.8547899999999999  6.8111100000000002 20.2421000000000006
  4.3428399999999998  6.9154799999999996 20.1734000000000009
  6.9148500000000004  6.9275900000000004 20.2601000000000013
  2.0568900000000001  4.0884400000000003  6.8424199999999997
  1.0474600000000001  4.1284999999999998  6.9014800000000003
  2.2731100000000000  4.0343999999999998  7.8145499999999997
  7.0087900000000003  7.9858900000000004  6.5405100000000003
  7.1741999999999999  0.0826264000000000  6.8720999999999997
  7.8602600000000002  7.5228900000000003  6.4206599999999998
  6.3043300000000002  5.8531700000000004  3.6770499999999999
  2.7149100000000002  5.3754900000000001  5.9410299999999996
  6.5120199999999997  6.0438000000000001  4.5558600000000000
  2.4146800000000002  3.5667100000000000  1.9315300000000000
  2.8439899999999998  2.9918000000000000  1.3183000000000000
  2.6344799999999999  3.2016800000000001  2.8022999999999998
  0.8394960000000000  0.3622260000000000 26.9759999999999991
  0.1778960000000000  0.7483460000000000 26.3262999999999998
  0.4557940000000000  8.3643999999999998 27.3856999999999999
  6.6163999999999996  6.8541900000000000 28.5281999999999982
  9.4854800000000008  2.6823999999999999  0.6848120000000000
  6.5171799999999998  6.2441399999999998 27.7998000000000012
  6.0781999999999998  4.8253899999999996 24.2936000000000014
  8.3338199999999993  2.5289400000000000 28.8725999999999985
  5.7786999999999997  4.1361400000000001 23.6612000000000009
  9.4844600000000003  2.1642299999999999 29.9928999999999988
  6.7733499999999998  0.4318900000000000  3.3255599999999998
  0.2334050000000000  2.3565100000000001 29.5258000000000003
  4.6856900000000001  7.2858599999999996 23.5864000000000011
  3.9485399999999999  6.6662900000000000 23.4420000000000002
  1.4538599999999999  3.4832500000000000 27.4705000000000013
  1.4461700000000000  2.7353900000000002 28.1141000000000005
  1.2376900000000000  1.9473499999999999 27.5592000000000006
  2.0337000000000001  5.9279200000000003 26.6961000000000013
  7.1291500000000001  0.0537518000000000  2.4688300000000001
  6.8566200000000004  0.7203170000000000  1.7322100000000000
  6.1563400000000001  6.8736899999999999  7.2483199999999997
  7.5386499999999996  6.9794000000000000 24.7363000000000000
  7.4292600000000002  6.1570400000000003 25.2377000000000002
  8.5131899999999998  6.9680099999999996 24.4949000000000012
  7.7676400000000001  2.8132400000000000 28.1297999999999995
  5.7301500000000001  7.1956600000000002 28.7775999999999996
  6.9181800000000004  2.3562400000000001 28.1055999999999990
  1.9261699999999999  7.8287300000000002  6.6239299999999997
  2.1779299999999999  7.9971100000000002  7.6123700000000003
  2.6018699999999999  7.1871499999999999  6.2073400000000003
  3.2619300000000000  5.9033300000000004  5.3280599999999998
  6.1790200000000004  5.6360999999999999 23.7944999999999993
  4.1011600000000001  6.0294600000000003  5.8324400000000001
  9.6213200000000008  3.6982900000000001  2.0555500000000002
  0.4796470000000000  3.8178200000000002  1.9992099999999999
  1.3644900000000000  1.2701800000000001  5.1947700000000001
  1.0145900000000001  1.8649100000000001  5.8514999999999997
  1.6329400000000001  0.5205980000000000  5.7963899999999997
  5.1268399999999996  0.1798740000000000  4.5022700000000002
  4.7903200000000004  0.8504300000000000  5.1460299999999997
  5.5150100000000002  8.3809299999999993  5.1484100000000002
  0.0819382000000000  6.8238599999999998 28.2486999999999995
  0.9394390000000000  6.4337000000000000 28.5125999999999991
  9.9159199999999998  7.1505999999999998 29.1132999999999988
  9.4710400000000003  4.6470200000000004  1.8722600000000000
  1.9348300000000000  5.0424199999999999 26.2781999999999982
  1.5564400000000000  5.1693199999999999 25.4083000000000006
  5.7759299999999998  4.3857299999999997 26.0626999999999995
  5.2126799999999998  4.1045400000000001 26.7728000000000002
  4.3421099999999999  4.4430800000000001 26.5542000000000016
  5.0896299999999997  7.3800800000000004 22.6982999999999997
  6.0728700000000000  3.0504899999999999  4.1435599999999999
  6.1526699999999996  2.7907400000000000  5.0913800000000000
  5.2063600000000001  2.6934100000000001  3.8613300000000002
  5.6155799999999996  6.0696899999999996  6.9349400000000001
  5.2062999999999997  5.5945900000000002  7.7694000000000001
  8.4678199999999997  3.4227900000000000 23.5301000000000009
  7.7804099999999998  4.0321999999999996 23.8479999999999990
  3.8500500000000000  7.7024100000000004 25.3928000000000011
  3.3435199999999998  7.7119099999999996 26.2251000000000012
  8.8582199999999993  8.7904099999999996  2.7941600000000002
  2.7268400000000002  8.4657400000000003 26.1765000000000008
  9.8392300000000006  8.6172100000000000  2.8530400000000000
  8.3018300000000007  3.3396900000000000 22.5954000000000015
  0.0406260000000000  0.4031930000000000  3.5796199999999998
  0.1730350000000000  7.9071499999999997 23.6205999999999996
  0.3372650000000000  8.7300400000000007 23.1681999999999988
  0.6856110000000000  7.2053200000000004 23.2619000000000007
  5.2316300000000000  2.3204300000000000 23.2057000000000002
  5.1226099999999999  1.7351000000000001 22.4085000000000001
  9.4561899999999994  6.5539100000000001  7.7566199999999998
  9.6065799999999992  6.5058499999999997  6.7755900000000002
  2.5476500000000000  2.0042200000000001  4.6237000000000004
  3.2185400000000000  2.6903299999999999  4.2840299999999996
  5.4769699999999997  1.7547999999999999 23.9445000000000014
  3.3563399999999999  3.4184000000000001  4.9313700000000003
  3.9051300000000002  8.2004999999999999  1.9671099999999999
  4.4076000000000004  8.3969799999999992  2.8255200000000000
  4.0886100000000001  7.2692399999999999  1.8764900000000000
  4.8384499999999999  2.5765400000000001  7.1134199999999996
  5.5569899999999999  2.0325899999999999  6.7586100000000000
  7.5857099999999997  6.0498300000000000  2.7606600000000001
  6.3266000000000000  2.1476500000000001  7.2707199999999998
  8.2493099999999995  6.0249300000000003  1.9987900000000001
  8.3297100000000004  6.8737000000000004  1.5359200000000000
  6.0732200000000001  8.5785999999999998 24.6911999999999985
  8.2523099999999996  1.4608699999999999  6.9631699999999999
  8.6361399999999993  1.4625400000000000  7.8788900000000002
  8.4528199999999991  2.3934000000000002  6.6624999999999996
  3.3037399999999999  1.7399700000000000  0.0172191000000000
  2.5539600000000000  1.1693400000000000  0.2435710000000000
  8.5041700000000002  2.0535100000000002 26.4049000000000014
  8.5980200000000000  1.4588399999999999 25.6814999999999998
  0.4722920000000000  6.7756600000000002  3.1597000000000000
  8.4479600000000001  2.1236600000000001 24.9396999999999984
  1.0290900000000001  5.9687299999999999  3.3203499999999999
  3.0138099999999999  2.2999000000000001 29.3885000000000005
  1.9018299999999999  6.3071599999999997  3.3883299999999998
  2.9735299999999998  2.5192399999999999 24.9664000000000001
  2.3327599999999999  3.0392500000000000 24.4553000000000011
  3.6391499999999999  2.3759700000000001 24.3370999999999995
  3.8978999999999999  5.5892900000000001  1.1851600000000000
  0.3948270000000000  6.7919900000000002  6.5940200000000004
  2.8129700000000000  6.8372299999999999 28.9323000000000015
  2.5099999999999998  5.8949400000000001 28.7836999999999996
  5.4967300000000003  1.2032400000000001 26.9788999999999994
  2.7957900000000002  5.4682000000000004 29.5973000000000006
  5.2553900000000002  1.7013499999999999 27.8051999999999992
  4.7846700000000002  5.2674899999999996  0.9630010000000000
  5.1109799999999996  2.6517599999999999 27.4984000000000002
  4.1227299999999998  8.0406099999999991 29.4939999999999998
  4.0249499999999996  0.1643410000000000 29.1069999999999993
  4.0340600000000002  8.2388499999999993  0.3460410000000000
  6.1247600000000002  4.9082299999999996  3.7086999999999999
  7.0438400000000003  5.1490900000000002  1.1517599999999999
  6.3603800000000001  4.6364200000000002  0.6306929999999999
  5.9005299999999998  1.4127900000000000 29.8406999999999982
  6.4927500000000000  5.0718199999999998 29.9141000000000012
  6.6873100000000001  1.6943600000000001  0.2674880000000000
  6.4945500000000003  2.6183700000000001  0.4281880000000000
  6.0271100000000004  0.6342770000000000 25.0844999999999985
  6.9443500000000000  0.8566660000000000 25.2239000000000004
  3.3167399999999998  4.8560900000000000  1.5047800000000000
  1.2249800000000000  8.1734500000000008  0.4761790000000000
  1.7834200000000000  7.9105699999999999  1.2683100000000000
  0.5038610000000000  8.5808000000000000  0.9843810000000000
  9.3086599999999997  4.0280500000000004  5.0779199999999998
  9.4237500000000001  4.8910799999999997  5.5254200000000004
  9.4802499999999998  4.2198900000000004  4.1378199999999996
  8.2766099999999998  5.0814300000000001 26.8334000000000010
  8.2042000000000002  4.2243700000000004 27.2824999999999989
  8.9183500000000002  5.6012300000000002 27.3968999999999987
  1.0289400000000000  4.5578200000000004 23.7027000000000001
  1.1578999999999999  4.7569600000000003 22.7251000000000012
  0.1257270000000000  4.2326499999999996 23.7960999999999991
  8.4793299999999991  8.1092300000000002 30.0717999999999996
  7.6945100000000002  8.0554699999999997 29.4689000000000014
  8.7608099999999993  0.3001080000000000 29.9956999999999994
