Cu O  H  O  H  O  H  O  H  O  H  O  H  O  H  O  H  O  H  O  H  O  H  O  H  O  H  O  H  O  H  O  H  O  H  O  H  O  H  O  H  O  H  O  H  O  H  O  H  O  H  O  H  O  H  O  H  O  H  O  H  O  H  O  H  O  H  O  H  O  H  O  H  O  H  O  H  O  H  O  H  O  H  O  H  O  H  O  H  O  H  O  H  O  H  O  H  O  H  O  H 
 1.0000000000000000
    10.1403771778044529    0.0000000000000000    0.0000000000000000
     0.0000000000000000    8.7818242399346058    0.0000000000000000
     0.0000000000000000    0.0000000000000000   30.1311271579000000
 Cu  O   H   O   H   O   H   O   H   O   H   O   H   O   H   O   H   O   H   O   H   O   H   O   H   O   H   O   H   O   H   O   H   O   H   O   H   O   H   O   H   O   H   O   H   O   H   O   H   O   H   O   H   O   H   O   H   O   H   O   H   O   H   O   H   O   H   O   H   O   H   O   H   O   H   O   H   O   H   O   H   O   H   O   H   O   H   O   H   O   H   O   H   O   H   O   H   O   H   O   H  
  96   1   2   1   2   1   2   1   2   1   2   1   2   1   2   1   2   1   2   1   2   1   2   1   2   1   2   1   2   1   2   1   1   1   2   1   2   1   3   1   2   1   2   1   2   1   1   1   2   1   2   1   2   1   2   1   2   1   1   1   2   1   3   1   2   1   2   1   2   1   2   1   2   1   2   1   2   1   2   1   2   1   2   1   4   1   2   1   1   1   2   1   2   1   2   1   2   1   2   1   2
Cartesian
  6.9401999999999999  1.1458800000000000  9.7174300000000002
  9.4735899999999997  1.1064400000000001  9.8147500000000001
  1.8674500000000001  1.1058100000000000  9.7728199999999994
  4.4531900000000002  0.9843700000000000  9.7220999999999993
  8.2766500000000001  3.3244099999999999  9.9057899999999997
  0.5524570000000000  3.4024500000000000 10.0732999999999997
  3.1741400000000000  3.3115000000000001  9.8209900000000001
  5.7141500000000001  3.2383099999999998  9.8233400000000000
  9.6252999999999993  5.5733499999999996  9.8067600000000006
  1.9389400000000001  5.4597400000000000 10.0556000000000001
  4.6075100000000004  5.4008500000000002  9.6776499999999999
  7.2206700000000001  5.6008800000000001  9.8791399999999996
  0.7240190000000000  7.7089299999999996  9.9175400000000007
  3.2521000000000000  7.6337500000000000  9.9964999999999993
  5.6543799999999997  7.6201400000000001  9.6386400000000005
  8.1754400000000000  7.8445799999999997  9.9506700000000006
  5.5974899999999996  1.7496600000000000 11.8688000000000002
  8.1607599999999998  1.7425400000000000 11.9620999999999995
  0.5389540000000000  1.7748699999999999 11.9105000000000008
  3.0261499999999999  1.8914299999999999 11.9647000000000006
  6.9670699999999997  3.9583200000000001 11.8569999999999993
  9.4053299999999993  4.0398500000000004 11.9924999999999997
  1.8926499999999999  3.9304399999999999 12.0189000000000004
  4.4178899999999999  3.9810900000000000 11.9250000000000007
  8.3194300000000005  6.2645299999999997 12.0084999999999997
  0.5943570000000000  6.2925100000000000 11.9160000000000004
  3.1767099999999999  6.0452700000000004 11.9716000000000005
  5.6666800000000004  6.2143199999999998 11.8117000000000001
  9.4879300000000004  8.4069000000000003 11.9806000000000008
  2.0118399999999999  8.4841499999999996 11.9122000000000003
  4.4290300000000000  8.5277100000000008 12.0911000000000008
  6.8733100000000000  8.2451100000000004 11.8439999999999994
  5.7039600000000004  0.3659090000000000 14.0305999999999997
  8.2390600000000003  0.3659090000000000 14.0305999999999997
  0.6337739999999999  0.3659090000000000 14.0305999999999997
  3.1688700000000001  0.3659090000000000 14.0305999999999997
  6.9715100000000003  2.5613700000000001 14.0305999999999997
  9.5066000000000006  2.5613700000000001 14.0305999999999997
  1.9013199999999999  2.5613700000000001 14.0305999999999997
  4.4364200000000000  2.5613700000000001 14.0305999999999997
  8.2390600000000003  4.7568200000000003 14.0305999999999997
  0.6337739999999999  4.7568200000000003 14.0305999999999997
  3.1688700000000001  4.7568200000000003 14.0305999999999997
  5.7039600000000004  4.7568200000000003 14.0305999999999997
  9.5066000000000006  6.9522800000000000 14.0305999999999997
  1.9013199999999999  6.9522800000000000 14.0305999999999997
  4.4364200000000000  6.9522800000000000 14.0305999999999997
  6.9715100000000003  6.9522800000000000 14.0305999999999997
  6.9715100000000003  1.0977300000000001 16.1005000000000003
  9.5066000000000006  1.0977300000000001 16.1005000000000003
  1.9013199999999999  1.0977300000000001 16.1005000000000003
  4.4364200000000000  1.0977300000000001 16.1005000000000003
  8.2390600000000003  3.2931800000000000 16.1005000000000003
  0.6337739999999999  3.2931800000000000 16.1005000000000003
  3.1688700000000001  3.2931800000000000 16.1005000000000003
  5.7039600000000004  3.2931800000000000 16.1005000000000003
  9.5066000000000006  5.4886400000000002 16.1005000000000003
  1.9013199999999999  5.4886400000000002 16.1005000000000003
  4.4364200000000000  5.4886400000000002 16.1005000000000003
  6.9715100000000003  5.4886400000000002 16.1005000000000003
  0.6337739999999999  7.6840999999999999 16.1005000000000003
  3.1688700000000001  7.6840999999999999 16.1005000000000003
  5.7039600000000004  7.6840999999999999 16.1005000000000003
  8.2390600000000003  7.6840999999999999 16.1005000000000003
  5.7769500000000003  1.9723999999999999 18.1498999999999988
  8.1201299999999996  1.7645500000000001 18.1780000000000008
  0.5518240000000000  1.8472599999999999 18.2498000000000005
  3.1411300000000000  1.7888299999999999 18.1773999999999987
  6.9602300000000001  4.0163700000000002 18.2262999999999984
  9.4370899999999995  3.9786400000000000 18.1125000000000007
  1.6465500000000000  3.9195899999999999 18.2555000000000014
  4.4809999999999999  4.0991499999999998 18.1285999999999987
  8.1340699999999995  6.1884399999999999 18.1935000000000002
  0.5743819999999999  6.2329299999999996 18.1042999999999985
  3.1154500000000001  6.2216800000000001 18.1285999999999987
  5.6699799999999998  6.3704700000000001 18.2110999999999983
  9.4183199999999996  8.3296899999999994 18.1804999999999986
  1.7478199999999999  8.5106099999999998 18.1585999999999999
  4.3486399999999996  8.4461600000000008 18.1449999999999996
  6.8502599999999996  8.4039500000000000 18.1574999999999989
  5.5540200000000004  0.2210630000000000 20.1880999999999986
  8.0080200000000001  0.3095260000000000 20.2979999999999983
  0.3831110000000000  0.3190320000000000 20.2682000000000002
  3.0872400000000000  0.4054390000000000 20.1633999999999993
  6.8819900000000001  2.4362800000000000 20.4483999999999995
  9.3312899999999992  2.4953799999999999 20.2551999999999985
  1.8583400000000001  2.4032600000000000 20.2936000000000014
  4.4457899999999997  2.5534900000000000 20.1615000000000002
  8.0762900000000002  4.7108900000000000 20.2707000000000015
  0.4786890000000000  4.7552700000000003 20.2754000000000012
  2.9854599999999998  4.7753399999999999 20.1200000000000010
  5.5978700000000003  4.7588800000000004 20.3079999999999998
  9.3480600000000003  6.8486700000000003 20.2287999999999997
  1.7603700000000000  6.9900300000000000 20.3150000000000013
  4.2769399999999997  6.9460600000000001 20.1290000000000013
  6.9327399999999999  6.8653100000000000 20.2833000000000006
  0.1955400000000000  8.2899100000000008 28.4820999999999991
  0.3347310000000000  8.6916399999999996 27.6457000000000015
  9.5271000000000008 -0.0917810000000000 28.8050999999999995
  4.7677899999999998  1.1031299999999999  6.5141000000000000
  4.6963400000000002  2.0587000000000000  6.3885800000000001
  4.7449500000000002  0.9353150000000000  7.4772600000000002
  1.8962000000000001  3.7124299999999999  3.2979400000000001
  5.7655799999999999  2.2032799999999999 26.4765000000000015
  1.7902700000000000  4.5297400000000003  2.7533300000000001
  8.6395900000000001  2.9951099999999999 26.6204000000000001
  8.7719500000000004  2.1048499999999999 26.1991000000000014
  9.5416699999999999  3.4448799999999999 26.6008999999999993
  7.3877199999999998  2.0496200000000000 23.5049999999999990
  7.8360399999999997  2.2387000000000001 22.7048999999999985
  7.7168099999999997  2.6239300000000001 24.1973999999999982
  1.7532000000000001  4.6333500000000001  5.9321999999999999
  8.3807799999999997  3.4988600000000001  6.3791700000000002
  1.4020100000000000  3.7378800000000001  6.2774500000000000
  0.4020430000000000  5.7214900000000002 29.3743000000000016
  1.3157399999999999  1.4745299999999999  6.1675399999999998
 10.4605999999999995  6.5800500000000000 29.0451000000000015
  8.7085200000000000  4.4372699999999998  6.5258200000000004
  0.4123420000000000  5.2725499999999998 27.5257000000000005
  8.8674099999999996  4.5599999999999996  7.4941599999999999
  3.8965200000000002  3.9382299999999999 29.7039000000000009
  4.1747300000000003  4.6399999999999997 30.3263999999999996
  3.9715600000000002  7.3493899999999996 26.2894000000000005
  4.2316900000000004  8.0809700000000007 26.8639000000000010
  3.4482400000000002  8.7073599999999995 26.8253999999999984
  2.8618700000000001  6.5464000000000002  7.8815600000000003
  0.7577390000000001  5.0116399999999999 26.6353000000000009
 10.3231999999999999  5.4668700000000001 25.9923000000000002
  6.6384499999999997  0.2132630000000000 28.9324000000000012
  4.7149700000000001  6.9206399999999997 23.5905999999999985
  4.9061300000000001  7.8553699999999997 23.2487999999999992
  4.1730999999999998  6.5756600000000001 22.8790000000000013
  1.0590500000000000  2.2072400000000001  6.7181899999999999
  2.7320799999999998  4.6581099999999998  6.0892600000000003
  0.5301270000000000  1.9476899999999999  7.5280800000000001
  7.2598900000000004  0.6645990000000001  2.7477299999999998
  6.8717699999999997  0.4957820000000000  3.6020900000000000
  8.0221499999999999  0.0400198000000000  2.7372500000000000
  6.0697500000000000  1.3066599999999999 26.4623999999999988
  9.5608900000000006  5.5245199999999999 29.5311999999999983
  5.4369199999999998  0.5913800000000000 26.4720000000000013
  4.4431700000000003  3.8824100000000001  6.0891700000000002
  5.1341700000000001  4.5247200000000003  5.7365500000000003
  1.7427600000000001  6.0981100000000001  1.8628899999999999
  1.2095700000000000  5.8059599999999998  1.1517299999999999
  2.7109399999999999  6.0514799999999997  1.6469600000000000
  1.5882200000000000  2.2655500000000002 29.2734999999999985
  1.0629400000000000  2.0818900000000000 -0.0688175000000000
  2.1534200000000001  3.0280600000000000 29.5169999999999995
  0.1847910000000000  3.3160200000000000 23.2709000000000010
 10.1213999999999995  3.1851600000000002 22.3334000000000010
  0.3235190000000000  4.2646100000000002 23.3698000000000015
  4.4877500000000001  4.1130699999999996  6.9977700000000000
  3.5727199999999999  6.6192200000000003  7.2488599999999996
  4.2531400000000001  7.0013899999999998  7.8334900000000003
  0.1484310000000000  0.2042440000000000  2.7434400000000001
  9.6594200000000008  8.2519299999999998  2.8876200000000001
 10.2317999999999998  7.5594000000000001  3.2719900000000002
  4.3955900000000003  4.0481800000000003 28.8886000000000003
  4.4028400000000003  5.6358300000000003  1.5774999999999999
  5.0596199999999998  6.4063100000000004  1.4894099999999999
  4.9679300000000000  5.0217200000000002  2.1376499999999998
  6.0787399999999998  8.1596600000000006 28.8370999999999995
  5.1968100000000002  8.4774999999999991 28.7285000000000004
  0.0081238300000000  8.3225599999999993 23.3012000000000015
  0.7662400000000000  0.1205080000000000 23.5453000000000010
  8.4690100000000008  0.3466770000000000 24.8043000000000013
  8.4504300000000008  0.4047380000000000 25.7983000000000011
  5.7042400000000004  4.4992400000000004 27.2316000000000003
  7.5181199999999997  0.7399130000000000 25.8995999999999995
  4.9578400000000000  3.8592499999999998 27.2017999999999986
 10.1151999999999997  8.3996800000000000 22.2847000000000008
  4.3444200000000004  4.4043299999999999 26.5987000000000009
  2.3120500000000002  0.3203570000000000  5.0951500000000003
  2.7843599999999999  0.8159320000000000  4.4029400000000001
  3.0571999999999999  0.2090700000000000  5.7437100000000001
  4.6993299999999998  1.6508100000000001  0.7511990000000000
  4.6552100000000003  2.4024399999999999  0.0850903000000000
  6.7856399999999999  7.8760500000000002  1.7019400000000000
  6.3160200000000000  7.1721399999999997  1.2271399999999999
  5.3027499999999996  1.3116800000000000 23.1734000000000009
  4.5647500000000001  0.7628120000000000 23.3606000000000016
  4.0174799999999999  1.0233600000000000  0.5519330000000000
  4.1315999999999997  0.7319059999999999 22.4582000000000015
  0.4333700000000000  6.8973399999999998  5.3591899999999999
  0.9789909999999999  6.0327799999999998  5.5880200000000002
  1.1934000000000000  7.5404000000000000  5.3624999999999998
  6.9972899999999996  1.7755300000000001  6.1160199999999998
  7.9320700000000004  1.7856399999999999  5.8536900000000003
  9.1986200000000000  7.3804999999999996  6.3907600000000002
  8.2170199999999998  1.0239600000000000  6.3801399999999999
  8.6080600000000000  8.1005299999999991  6.7850599999999996
  8.6577000000000002  8.0524900000000006  7.7928699999999997
  2.0414400000000001 -0.0092890200000000 29.6594000000000015
  6.4447700000000001  5.3716600000000003  5.3469300000000004
  6.4263399999999997  6.3737399999999997  5.3384799999999997
  7.2615699999999999  5.0821199999999997  5.8425500000000001
  4.0977899999999998  4.0788000000000002 23.3994000000000000
  3.6169199999999999  3.9876999999999998 22.5670000000000002
  7.2754599999999998  8.1836099999999998  5.7940699999999996
  6.4730200000000000  8.1215100000000007  5.2705500000000001
  7.4104799999999997  5.4546099999999997 29.2483000000000004
  5.7485200000000001 -0.1842730000000000  5.6632300000000004
  7.9573700000000001  5.2068099999999999 -0.0743438000000000
  4.9662800000000002  3.8351600000000001 23.0573000000000015
  7.5899099999999997  5.7432800000000004  0.6543360000000000
  4.0734100000000000  1.9969600000000001  3.3365399999999998
  3.3711000000000002  2.6913399999999998  3.3748900000000002
  4.3380099999999997  1.9020900000000001  2.3671500000000001
  8.4857200000000006  6.2610900000000003 25.6444000000000010
  6.3015600000000003  7.5213200000000002  0.3270440000000000
  6.2133500000000002  4.4355300000000000  3.7563800000000001
  6.1205299999999996  4.0647799999999998  2.8421699999999999
  2.0203500000000001  1.3360600000000000 25.9568000000000012
  5.6497900000000003  3.2584200000000001  3.0283600000000002
  1.9621999999999999  1.0053500000000000 26.8901000000000003
  8.5274400000000004  7.1487900000000000 25.3368000000000002
  1.7881700000000000  1.7403700000000000 27.5390000000000015
  8.0594400000000004  1.3208000000000000 28.8811000000000000
  8.1697199999999999  2.0321099999999999 28.2064999999999984
  8.0818700000000003  1.7285500000000000 29.7990999999999993
  1.7418300000000000  4.0231100000000000  4.1920700000000002
  2.4125899999999998  5.3303799999999999 26.0805000000000007
  3.3083900000000002  5.7496799999999997 25.9088999999999992
  3.0243799999999998  1.6147300000000000 24.1352000000000011
  3.4386500000000000  5.5533700000000001 24.9323000000000015
  2.0267200000000001  1.4719300000000000 24.1043999999999983
  1.6914899999999999  2.3200900000000000 23.7628999999999984
  2.7686299999999999  8.4111100000000008  0.0405959000000000
  3.2275399999999999  7.7488000000000001 29.6733000000000011
  7.8086599999999997  5.7897600000000002 25.0509999999999984
  0.5627690000000000  1.9938300000000000  1.8801399999999999
  0.9612980000000000  2.6784200000000000  2.4757300000000000
  9.7534799999999997  2.1705399999999999  1.8788600000000000
  7.0423400000000003  5.1362600000000000 23.6778000000000013
  7.4953900000000004  4.7658500000000004 22.8847999999999985
  6.2042799999999998  5.6645000000000003 23.3974000000000011
  1.2583200000000001  5.7890600000000001 23.5549999999999997
  0.8652550000000000  6.7204100000000002 23.4602000000000004
  1.7149500000000000  5.6052700000000000 22.7667000000000002
  8.0760400000000008  2.6341299999999999  1.0329500000000000
  7.4834699999999996  2.2257799999999999  1.6625700000000001
  7.8358699999999999  3.5440800000000001  0.8231200000000000
  6.8628000000000000  5.7440800000000003 27.7513000000000005
  7.4879300000000004  5.6887100000000004 27.0034999999999989
  6.5185100000000000  6.6279300000000001 27.8937999999999988
