Cu O  H  O  H  O  H  O  H  O  H  O  H  O  H  O  H  O  H  O  H  O  H  O  H  O  H  O  H  O  H  O  H  O  H  O  H  O  H  O  H  O  H  O  H  O  H  O  H  O  H  O  H  O  H  O  H  O  H  O  H  O  H  O  H  O  H  O  H  O  H  O  H  O  H  O  H  O  H  O  H  O  H  O  H  O  H  O  H  O  H  O  H  O  H  O  H  O  H  O  H 
 1.0000000000000000
    10.1403771778044529    0.0000000000000000    0.0000000000000000
     0.0000000000000000    8.7818242399346058    0.0000000000000000
     0.0000000000000000    0.0000000000000000   30.1311271579000000
 Cu  O   H   O   H   O   H   O   H   O   H   O   H   O   H   O   H   O   H   O   H   O   H   O   H   O   H   O   H   O   H   O   H   O   H   O   H   O   H   O   H   O   H   O   H   O   H   O   H   O   H   O   H   O   H   O   H   O   H   O   H   O   H   O   H   O   H   O   H   O   H   O   H   O   H   O   H   O   H   O   H   O   H   O   H   O   H   O   H   O   H   O   H   O   H   O   H   O   H   O   H  
  96   1   2   1   2   1   2   1   2   1   2   1   2   1   2   1   2   1   2   1   2   1   2   1   2   1   2   1   2   1   2   1   1   1   2   1   2   1   3   1   2   1   2   1   2   1   1   1   2   1   2   1   2   1   2   1   2   1   1   1   2   1   3   1   2   1   2   1   2   1   2   1   2   1   2   1   2   1   2   1   2   1   2   1   4   1   2   1   1   1   2   1   2   1   2   1   2   1   2   1   2
Cartesian
  7.0762200000000002  0.9592610000000000  9.9956700000000005
  9.7077399999999994  1.0486300000000000  9.9236400000000007
  2.0618400000000001  1.0434000000000001  9.7851199999999992
  4.6631600000000004  1.2224699999999999  9.7612100000000002
  8.4591499999999993  3.2148699999999999 10.0196000000000005
  0.9012950000000000  3.2400500000000001  9.8168500000000005
  3.3102700000000000  3.3622100000000001  9.9179899999999996
  5.8160999999999996  3.2836699999999999  9.8937299999999997
  9.7184699999999999  5.3582999999999998  9.6332199999999997
  2.1015700000000002  5.4948800000000002  9.8450900000000008
  4.5414099999999999  5.4457700000000004  9.8351799999999994
  7.0742799999999999  5.4372400000000001  9.8598400000000002
  0.7306620000000000  7.7052699999999996  9.8861699999999999
  3.3666499999999999  7.7106800000000000  9.7357600000000009
  5.8405699999999996  7.5547100000000000 10.0853000000000002
  8.3302499999999995  7.6878099999999998  9.9320699999999995
  5.7637400000000003  1.8588100000000001 12.0214999999999996
  8.3617899999999992  1.7756799999999999 11.9684000000000008
  0.6959010000000000  1.7966400000000000 11.9116999999999997
  3.1600999999999999  1.8308899999999999 11.7493999999999996
  7.1166400000000003  3.9586000000000001 11.9832999999999998
  9.6570400000000003  4.0246500000000003 11.9817999999999998
  1.9585300000000001  4.1135099999999998 11.9606999999999992
  4.5817600000000001  3.9654799999999999 11.9494000000000007
  8.3770100000000003  6.2332900000000002 11.9090000000000007
  0.6817590000000000  6.1966799999999997 11.8734999999999999
  3.2839900000000002  6.2214000000000000 11.8280999999999992
  5.7950400000000002  6.1371399999999996 11.9101999999999997
  9.6034400000000009  8.4341299999999997 11.9480000000000004
  2.0697000000000001  8.2471499999999995 11.8916000000000004
  4.5739599999999996  8.3088400000000000 11.8644999999999996
  7.0425899999999997  8.4704400000000000 12.0360999999999994
  5.7039600000000004  0.3659090000000000 14.0305999999999997
  8.2390600000000003  0.3659090000000000 14.0305999999999997
  0.6337739999999999  0.3659090000000000 14.0305999999999997
  3.1688700000000001  0.3659090000000000 14.0305999999999997
  6.9715100000000003  2.5613700000000001 14.0305999999999997
  9.5066000000000006  2.5613700000000001 14.0305999999999997
  1.9013199999999999  2.5613700000000001 14.0305999999999997
  4.4364200000000000  2.5613700000000001 14.0305999999999997
  8.2390600000000003  4.7568200000000003 14.0305999999999997
  0.6337739999999999  4.7568200000000003 14.0305999999999997
  3.1688700000000001  4.7568200000000003 14.0305999999999997
  5.7039600000000004  4.7568200000000003 14.0305999999999997
  9.5066000000000006  6.9522800000000000 14.0305999999999997
  1.9013199999999999  6.9522800000000000 14.0305999999999997
  4.4364200000000000  6.9522800000000000 14.0305999999999997
  6.9715100000000003  6.9522800000000000 14.0305999999999997
  6.9715100000000003  1.0977300000000001 16.1005000000000003
  9.5066000000000006  1.0977300000000001 16.1005000000000003
  1.9013199999999999  1.0977300000000001 16.1005000000000003
  4.4364200000000000  1.0977300000000001 16.1005000000000003
  8.2390600000000003  3.2931800000000000 16.1005000000000003
  0.6337739999999999  3.2931800000000000 16.1005000000000003
  3.1688700000000001  3.2931800000000000 16.1005000000000003
  5.7039600000000004  3.2931800000000000 16.1005000000000003
  9.5066000000000006  5.4886400000000002 16.1005000000000003
  1.9013199999999999  5.4886400000000002 16.1005000000000003
  4.4364200000000000  5.4886400000000002 16.1005000000000003
  6.9715100000000003  5.4886400000000002 16.1005000000000003
  0.6337739999999999  7.6840999999999999 16.1005000000000003
  3.1688700000000001  7.6840999999999999 16.1005000000000003
  5.7039600000000004  7.6840999999999999 16.1005000000000003
  8.2390600000000003  7.6840999999999999 16.1005000000000003
  5.6822400000000002  1.7315000000000000 18.2133000000000003
  8.3330599999999997  1.8342400000000001 18.1910999999999987
  0.7491280000000000  1.9230100000000001 18.1810000000000009
  3.1812999999999998  1.9233499999999999 18.1934000000000005
  6.9373899999999997  3.9623800000000000 18.1959000000000017
  9.4383999999999997  4.0037599999999998 18.2088000000000001
  1.8636900000000001  4.0545999999999998 18.3187999999999995
  4.3964600000000003  4.1195000000000004 18.2733999999999988
  8.2986199999999997  6.2697900000000004 18.2214999999999989
  0.6774180000000000  6.2843900000000001 18.1719000000000008
  3.1850000000000001  6.1507699999999996 18.2606999999999999
  5.6604200000000002  6.1731100000000003 18.2514000000000003
  9.6177399999999995  8.4193700000000007 18.0727000000000011
  2.0296200000000000  8.4171999999999993 18.2915999999999990
  4.4844700000000000  8.4428000000000001 18.0313000000000017
  6.9632500000000004  8.3955199999999994 18.1296999999999997
  5.5184899999999999  0.4034540000000000 20.2112000000000016
  8.1938700000000004  0.4281180000000000 20.2016999999999989
  0.6561210000000000  0.4090280000000000 20.2702999999999989
  3.0369400000000000  0.4753890000000000 20.4542000000000002
  6.9377700000000004  2.4444300000000001 20.2489999999999988
  9.5052699999999994  2.5400000000000000 20.1045000000000016
  1.8797100000000000  2.6535500000000001 20.3234999999999992
  4.3763100000000001  2.6215000000000002 20.5503999999999998
  8.1874599999999997  4.7246499999999996 20.2312000000000012
  0.5458300000000000  4.9249900000000002 20.2041000000000004
  3.1192299999999999  4.7906800000000000 20.3669000000000011
  5.6138199999999996  4.7737299999999996 20.4266000000000005
  9.4549800000000008  7.0087200000000003 20.2650000000000006
  1.8363000000000000  7.0589199999999996 20.2854999999999990
  4.3916800000000000  7.0889100000000003 20.1939999999999991
  6.9318900000000001  7.0061299999999997 20.2105999999999995
  9.3663100000000004  1.4799500000000001  1.2374799999999999
  9.6196500000000000  1.7047500000000000  2.2194699999999998
  8.6007700000000007  0.7749170000000000  1.4590500000000000
  7.8841700000000001  4.5184600000000001  6.5797299999999996
  8.3438999999999997  3.6993299999999998  6.8802700000000003
  7.5629400000000002  4.9873599999999998  7.3920800000000000
  4.0785600000000004  0.7841160000000000 25.5867000000000004
  0.7981330000000000  5.4998699999999996 29.2716999999999992
  4.5829599999999999  1.6412300000000000 25.7870999999999988
  0.2530440000000000  3.5253000000000001 23.3927000000000014
 10.6826000000000008  4.4423700000000004 23.6377999999999986
  0.6335590000000000  3.3998300000000001 22.4950000000000010
  5.1533699999999998  5.1312100000000003  4.8193400000000004
  4.4474200000000002  5.6126699999999996  4.3216200000000002
  5.3451700000000004  5.7164599999999997  5.6762499999999996
  5.7650399999999999  2.7813500000000002 26.8214000000000006
  8.1805599999999998  0.7642050000000000 22.5518000000000001
  5.3124000000000002  3.6719800000000000 26.7438000000000002
  0.9151410000000000  8.2849500000000003  0.1606150000000000
  4.7873599999999996  6.7248799999999997 27.1521000000000008
  0.3592580000000000  0.3505890000000000  0.3939180000000000
  8.5468899999999994  1.0801499999999999 23.4177000000000000
  9.4920100000000005  6.2149599999999996 23.9219000000000008
  8.9006699999999999  1.9834300000000000 23.3094999999999999
  8.7600899999999999  2.4885700000000002 27.2593999999999994
  9.0825099999999992  1.7006399999999999 26.7746999999999993
  3.0846800000000001  3.7169400000000001  1.2467600000000001
  3.9464899999999998  3.6185900000000002  1.6488100000000001
  3.9960000000000000  4.3777900000000001  2.2942999999999998
  9.4664900000000003  5.3616099999999998 25.6397000000000013
  0.2439400000000000  6.1499199999999998 24.3216999999999999
  0.6429990000000000  7.0271400000000002 24.1286999999999985
  4.3366600000000002  6.5812700000000000  2.2152400000000001
  1.8220300000000000  8.2153200000000002 26.8613000000000000
  1.7859499999999999  7.4518800000000001 27.5141999999999989
  2.6948599999999998  8.4410799999999995 26.6076000000000015
  4.4397099999999998  7.0045500000000001 28.0395000000000003
  5.7291999999999996  2.4920300000000002 27.7493000000000016
  4.5992800000000003  6.2562499999999996 28.5734999999999992
  4.4000000000000004  0.4947540000000000  5.1116200000000003
  4.7905899999999999  1.3226000000000000  5.4543600000000003
  4.9523000000000001  8.6146700000000003  5.5353599999999998
  0.3647230000000000  6.1229800000000001 28.7121999999999993
  0.4003190000000000  7.8145699999999998 29.5803000000000011
 10.0070999999999994  5.7594700000000003 27.9756000000000000
  0.4681000000000000  4.7099900000000003  3.1690000000000000
  9.7468500000000002  4.9662899999999999  3.4876000000000000
  5.6379900000000003  0.9109250000000000 28.8826000000000001
  5.1462700000000003  9.0529200000000003 28.3323999999999998
  5.1490499999999999  0.8385720000000000 29.7227999999999994
  4.1224499999999997  2.9932799999999999  6.1815899999999999
  4.5496999999999996  3.0423700000000000  7.0458699999999999
  4.5643200000000004  3.7517499999999999  5.7222799999999996
  1.6043200000000000  4.2875699999999997  0.3615820000000000
  0.8835480000000000  3.7698399999999999 30.1060000000000016
  1.4791700000000001  4.4263100000000000  1.2980400000000001
  0.8102960000000000  4.1974600000000004  3.8973800000000001
  8.8717100000000002  5.3507100000000003 26.4502999999999986
  8.8756599999999999  4.4095399999999998 26.6572999999999993
  6.0047100000000002  4.7402400000000000 29.2134000000000000
  5.0610299999999997  4.3624299999999998 29.2500999999999998
  4.7140899999999997  4.3970599999999997 30.1722999999999999
  7.7890800000000002  2.4260199999999998 27.3475999999999999
  6.1872299999999996  2.5493700000000001  1.5682600000000000
  5.3143900000000004  2.8276300000000001  1.2549800000000000
  6.3804600000000002  1.7617499999999999  1.0619200000000000
  3.6686899999999998  6.0745399999999998  2.7274699999999998
  2.8346900000000002  6.5613500000000000  2.5689500000000001
  1.6672100000000001  6.3125600000000004  6.7434099999999999
  1.3673100000000000  6.3151099999999998  7.6153700000000004
  6.7740700000000000  2.1405500000000002 23.7335999999999991
  5.9967800000000002  2.6232500000000001 23.3355999999999995
 10.1486000000000001  2.6152500000000001  6.5635199999999996
  5.8201400000000003  2.5439200000000000 22.3969999999999985
  9.3609100000000005  2.0426500000000001  6.7579399999999996
  1.4352000000000000  7.1576800000000000  6.3552799999999996
  9.4754199999999997  1.9161400000000000  7.6882900000000003
  9.2861999999999991  8.8376000000000001 25.8784999999999989
 10.1396999999999995 -0.2609890000000000 25.8273000000000010
  9.0611099999999993  0.2625620000000000 24.9328000000000003
  9.3156099999999995  3.3674700000000000 29.3933000000000000
  9.2154299999999996  2.7241000000000000  0.0402989000000000
  4.0783600000000000  5.3433400000000004 22.6570999999999998
  4.0695699999999997  4.9422400000000000 23.5189999999999984
  1.8547899999999999  5.5321100000000003 25.5209000000000010
  2.3794200000000001  4.7208199999999998 25.6260000000000012
  9.2930200000000003  2.7311899999999998 28.6169000000000011
  2.9946199999999998  4.7021699999999997 24.8475999999999999
  1.3177500000000000  8.4060799999999993  5.0101300000000002
  2.2091400000000001  8.6954899999999995  5.2075800000000001
  1.3543700000000001  7.9082600000000003  4.1363599999999998
  0.9595720000000000  6.3385800000000003  2.6981799999999998
  1.2474000000000001  7.2837600000000000  2.4930099999999999
  2.7659699999999998  1.3880999999999999 29.4790999999999990
  1.0780600000000000  7.5243399999999996  1.5426000000000000
  3.1139399999999999  1.0277400000000001  0.1921520000000000
  2.7705299999999999  0.1508880000000000  0.2117560000000000
  2.6612600000000000  3.0340099999999999 27.8522999999999996
  7.6910699999999999  8.4790100000000006  2.6933400000000001
  6.9493099999999997  0.3472990000000000  2.6277200000000001
  7.1868200000000000  7.6611799999999999  2.4323600000000001
  8.3407300000000006  6.1400399999999999  4.3733899999999997
  8.5157200000000000  7.0701599999999996  4.6858599999999999
  4.9920900000000001  5.8851800000000001 24.7757000000000005
  5.5458299999999996  5.8804600000000002 25.6387999999999998
  6.2437800000000001  3.6131700000000002  4.6675100000000000
  6.3753799999999998  6.2631300000000003 25.2488999999999990
  6.7754200000000004  2.8806600000000002  4.3149100000000002
  8.1269500000000008  5.6557800000000000  5.2083199999999996
  6.7148199999999996  2.8790300000000002  3.3573400000000002
  1.4816000000000000  3.5526100000000000  5.8037099999999997
  1.5381600000000000  4.4947299999999997  6.0645899999999999
  2.3965100000000001  3.2930700000000002  5.9282000000000004
  1.4995799999999999  8.5104600000000001 23.7005000000000017
  4.7653800000000004  4.2340799999999996 23.3328999999999986
  8.9997600000000002  2.2875800000000002  4.4716500000000003
  9.6212999999999997  1.8538500000000000  3.8612500000000001
  6.9686199999999996  5.6675399999999998  2.6764800000000002
 -0.0455015000000000  1.3023100000000001  4.4603999999999999
  6.4250100000000003  6.1270300000000004  1.9604800000000000
  1.3327599999999999  8.8578100000000006 22.8021999999999991
  6.9460699999999997  6.0150499999999996  1.0824499999999999
  7.5775899999999998  5.6129800000000003 29.4979000000000013
  7.9504900000000003  6.2959600000000000 28.8615999999999993
  8.1417999999999999  4.8597400000000004 29.4757999999999996
  4.5116199999999997  0.1924360000000000 24.8575000000000017
  8.6667699999999996  7.8137999999999996 27.4568000000000012
  8.4588900000000002  8.1777400000000000 28.3245000000000005
  4.4853399999999999  1.0086900000000001  2.0482800000000001
  7.7451100000000004  8.7184899999999992 27.9753000000000007
  4.7654399999999999  0.2846400000000000  2.6430799999999999
  4.4577499999999999  0.3730080000000000  3.5703800000000001
  2.1096599999999999  2.2809900000000001 28.0616999999999983
  1.6933499999999999  1.8762799999999999 27.2651000000000003
  1.3053300000000001  0.5302440000000000 24.2974999999999994
  5.4995500000000002  7.2470200000000000  6.7761300000000002
  6.3265500000000001  7.7639800000000001  6.8703300000000000
  5.4602199999999996  6.8559799999999997  7.7025199999999998
  7.6901400000000004  5.8735400000000002 23.6936000000000000
  7.5693200000000003  4.9278500000000003 24.0023000000000017
  7.1596200000000003  5.9545500000000002 22.8663999999999987
  1.4532499999999999  1.8487800000000001 25.4694000000000003
  2.4019100000000000  1.8433600000000001 25.3183000000000007
  1.2532500000000000  2.7190200000000000 25.0210000000000008
  4.5381999999999998  7.6759399999999998 23.5111999999999988
  3.5714600000000001  7.5832499999999996 23.4619000000000000
  4.7234400000000001  8.2027000000000001 22.7581999999999987
  7.7542299999999997  8.8588100000000001  5.8529400000000003
  8.4657900000000001  0.7026890000000000  6.1048600000000004
  7.4520900000000001  0.5347890000000000  5.0969499999999996
