Cu O  H  O  H  O  H  O  H  O  H  O  H  O  H  O  H  O  H  O  H  O  H  O  H  O  H  O  H  O  H  O  H  O  H  O  H  O  H  O  H  O  H  O  H  O  H  O  H  O  H  O  H  O  H  O  H  O  H  O  H  O  H  O  H  O  H  O  H  O  H  O  H  O  H  O  H  O  H  O  H  O  H  O  H  O  H  O  H  O  H  O  H  O  H  O  H  O  H  O  H 
 1.0000000000000000
    10.1403771778044529    0.0000000000000000    0.0000000000000000
     0.0000000000000000    8.7818242399346058    0.0000000000000000
     0.0000000000000000    0.0000000000000000   30.1311271579000000
 Cu  O   H   O   H   O   H   O   H   O   H   O   H   O   H   O   H   O   H   O   H   O   H   O   H   O   H   O   H   O   H   O   H   O   H   O   H   O   H   O   H   O   H   O   H   O   H   O   H   O   H   O   H   O   H   O   H   O   H   O   H   O   H   O   H   O   H   O   H   O   H   O   H   O   H   O   H   O   H   O   H   O   H   O   H   O   H   O   H   O   H   O   H   O   H   O   H   O   H   O   H  
  96   1   2   1   2   1   2   1   2   1   2   1   2   1   2   1   2   1   2   1   2   1   2   1   2   1   2   1   2   1   2   1   1   1   2   1   2   1   3   1   2   1   2   1   2   1   1   1   2   1   2   1   2   1   2   1   2   1   1   1   2   1   3   1   2   1   2   1   2   1   2   1   2   1   2   1   2   1   2   1   2   1   2   1   4   1   2   1   1   1   2   1   2   1   2   1   2   1   2   1   2
Cartesian
  7.1031500000000003  1.0377900000000000  9.7797699999999992
  9.5188000000000006  1.1471899999999999  9.9002700000000008
  1.9086399999999999  1.0139700000000000  9.9801500000000001
  4.5670000000000002  1.0086200000000001  9.8630999999999993
  8.2083700000000004  3.2447599999999999  9.8687600000000000
  0.5958700000000000  3.3498299999999999  9.9147499999999997
  3.2243700000000000  3.3441999999999998  9.8632399999999993
  5.7849300000000001  3.2807200000000001  9.8510399999999994
  9.5346100000000007  5.4633700000000003  9.8608899999999995
  1.9592799999999999  5.4408799999999999  9.9679699999999993
  4.5044000000000004  5.5021000000000004  9.8708299999999998
  7.0019600000000004  5.3574099999999998  9.9130699999999994
  0.5571730000000000  7.6859299999999999 10.0007999999999999
  3.1977699999999998  7.6571600000000002  9.9285399999999999
  5.7016200000000001  7.6725500000000002  9.9187999999999992
  8.2209800000000008  7.6222399999999997  9.9280299999999997
  5.7169699999999999  1.7210000000000001 11.9611000000000001
  8.2870100000000004  1.8150999999999999 11.9354999999999993
  0.5866370000000000  1.8238300000000001 11.8840000000000003
  3.1772499999999999  1.8706600000000000 11.9512999999999998
  7.0091299999999999  4.0107999999999997 12.0132999999999992
  9.4742800000000003  4.0939399999999999 11.9130000000000003
  1.8916800000000000  4.0176299999999996 11.9169999999999998
  4.4208800000000004  4.0233100000000004 11.9593000000000007
  8.2643599999999999  6.1377600000000001 11.9070000000000000
  0.7498910000000000  6.2647199999999996 11.9877000000000002
  3.2013699999999998  6.1327900000000000 11.9878000000000000
  5.6596799999999998  6.1749900000000002 12.0840999999999994
  9.4556299999999993  8.4721499999999992 11.9712999999999994
  1.9153600000000000  8.3994300000000006 11.9938000000000002
  4.5430999999999999  8.3997299999999999 12.0306999999999995
  6.9380300000000004  8.3191699999999997 11.8703000000000003
  5.7039600000000004  0.3659090000000000 14.0305999999999997
  8.2390600000000003  0.3659090000000000 14.0305999999999997
  0.6337739999999999  0.3659090000000000 14.0305999999999997
  3.1688700000000001  0.3659090000000000 14.0305999999999997
  6.9715100000000003  2.5613700000000001 14.0305999999999997
  9.5066000000000006  2.5613700000000001 14.0305999999999997
  1.9013199999999999  2.5613700000000001 14.0305999999999997
  4.4364200000000000  2.5613700000000001 14.0305999999999997
  8.2390600000000003  4.7568200000000003 14.0305999999999997
  0.6337739999999999  4.7568200000000003 14.0305999999999997
  3.1688700000000001  4.7568200000000003 14.0305999999999997
  5.7039600000000004  4.7568200000000003 14.0305999999999997
  9.5066000000000006  6.9522800000000000 14.0305999999999997
  1.9013199999999999  6.9522800000000000 14.0305999999999997
  4.4364200000000000  6.9522800000000000 14.0305999999999997
  6.9715100000000003  6.9522800000000000 14.0305999999999997
  6.9715100000000003  1.0977300000000001 16.1005000000000003
  9.5066000000000006  1.0977300000000001 16.1005000000000003
  1.9013199999999999  1.0977300000000001 16.1005000000000003
  4.4364200000000000  1.0977300000000001 16.1005000000000003
  8.2390600000000003  3.2931800000000000 16.1005000000000003
  0.6337739999999999  3.2931800000000000 16.1005000000000003
  3.1688700000000001  3.2931800000000000 16.1005000000000003
  5.7039600000000004  3.2931800000000000 16.1005000000000003
  9.5066000000000006  5.4886400000000002 16.1005000000000003
  1.9013199999999999  5.4886400000000002 16.1005000000000003
  4.4364200000000000  5.4886400000000002 16.1005000000000003
  6.9715100000000003  5.4886400000000002 16.1005000000000003
  0.6337739999999999  7.6840999999999999 16.1005000000000003
  3.1688700000000001  7.6840999999999999 16.1005000000000003
  5.7039600000000004  7.6840999999999999 16.1005000000000003
  8.2390600000000003  7.6840999999999999 16.1005000000000003
  5.5773099999999998  1.8944200000000000 18.1524999999999999
  8.2459299999999995  1.8089900000000001 18.1514999999999986
  0.6453000000000000  1.7188099999999999 18.0735999999999990
  3.1721200000000001  1.6676500000000001 18.1487000000000016
  7.0263600000000004  3.8920100000000000 18.1255999999999986
  9.5095899999999993  3.9093499999999999 18.2048999999999985
  1.8713900000000001  3.9635500000000001 18.1000000000000014
  4.4348299999999998  4.0626800000000003 18.2469999999999999
  8.2930700000000002  6.1384999999999996 18.1378999999999984
  0.5034980000000000  6.2419099999999998 18.0149000000000008
  3.1269900000000002  6.2258599999999999 18.0797999999999988
  5.7395699999999996  6.1460600000000003 18.2158000000000015
  9.4905000000000008  8.4107599999999998 18.2067000000000014
  1.9225600000000000  8.3504699999999996 18.0712000000000010
  4.4710900000000002  8.3135700000000003 18.1627000000000010
  7.0056599999999998  8.3981999999999992 18.1173000000000002
  5.7854500000000000  0.4028350000000000 20.0989000000000004
  8.2684300000000004  0.2593110000000000 20.1711999999999989
  0.6583909999999999  0.2180860000000000 20.1890999999999998
  3.1777700000000002  0.3649380000000000 20.1015000000000015
  6.9159800000000002  2.5474299999999999 20.3084999999999987
  9.6522600000000001  2.5284100000000000 20.3134000000000015
  1.8982900000000000  2.5761500000000002 20.0148000000000010
  4.5451699999999997  2.6379100000000002 20.3320000000000007
  8.1706299999999992  4.8124000000000002 20.1523000000000003
  0.5742100000000000  4.7738800000000001 20.1838000000000015
  3.1984800000000000  4.6213400000000000 20.2327000000000012
  5.6650600000000004  4.8643700000000001 20.3731000000000009
  9.3971599999999995  6.9873799999999999 20.3399000000000001
  1.8186300000000000  6.9081999999999999 20.0974000000000004
  4.3935800000000000  6.9085000000000001 20.0397999999999996
  6.8711099999999998  6.9364400000000002 20.2353999999999985
 10.1050000000000004  6.5011099999999997  6.8476800000000004
 10.1042000000000005  6.7271599999999996  7.8129099999999996
  9.8109300000000008  5.5006500000000003  6.7326899999999998
  5.1849299999999996  5.8132799999999998  0.5541850000000000
  5.4348500000000000  6.6604400000000004  0.1013590000000000
  4.2913199999999998  5.8138899999999998  0.8396960000000000
  0.7966440000000000  1.1498699999999999 29.3959000000000010
  0.4346180000000000  7.0719200000000004 25.5605000000000011
 10.3042999999999996  1.5589900000000001 28.8161999999999985
  6.3120399999999997  2.8919400000000000 27.6661000000000001
  6.4904599999999997  3.8332999999999999 27.4832000000000001
  5.7321299999999997  2.6349999999999998 26.9501999999999988
  6.9813599999999996  4.9684299999999997  3.3751699999999998
  7.5551899999999996  4.1618700000000004  3.2604799999999998
  6.9902499999999996  5.0544500000000001  4.3209799999999996
  5.4572900000000004  7.1243100000000004 23.3121000000000009
  2.6960999999999999  1.3212400000000000 22.0197000000000003
  6.0411299999999999  6.6735100000000003 22.6543999999999990
  2.5449600000000001  1.0345000000000000 26.0547000000000004
  8.7857400000000005  6.9593900000000000  1.8307400000000000
  2.9964100000000000  1.1403099999999999 26.9049000000000014
  2.4281400000000000  1.7211700000000001 22.8552999999999997
  7.6106800000000003  3.2318199999999999 23.1811000000000007
  2.5557400000000001  2.6707100000000001 22.6448999999999998
  9.0637699999999999  6.1938899999999997 25.1402000000000001
  9.2211900000000000  5.4914899999999998 24.5133000000000010
  6.0071000000000003 -0.0150862000000000 29.8065999999999995
  6.4920299999999997  7.9197899999999999 29.4798000000000009
  6.2324200000000003  7.9427500000000002 28.4928999999999988
  2.5026899999999999  7.6144800000000004 29.1381000000000014
  6.8655499999999998  2.6324900000000002 23.3291000000000004
  6.4571100000000001  2.6246299999999998 22.4089999999999989
  0.3106210000000000  7.7813299999999996  3.1654399999999998
  9.5924499999999995  3.7558300000000000 23.4143000000000008
  9.7956500000000002  3.8599100000000002 22.4652999999999992
 10.4391999999999996  3.3836700000000000 23.7244999999999990
  7.8101900000000004  6.8842100000000004  1.7405200000000001
  4.7436699999999998  7.4034599999999999 22.7163000000000004
  7.5736900000000000  6.2546900000000001  2.3971399999999998
  0.5624300000000000  0.5376440000000000  4.2231199999999998
  1.3908400000000001  0.4052450000000000  4.6948600000000003
  0.9456070000000000  1.2273000000000001  3.6021299999999998
  1.2636600000000000  7.4741099999999996 25.2808999999999990
  2.2780999999999998  0.1004150000000000 26.0091000000000001
  0.9678949999999999  8.0521200000000004 24.4711999999999996
  5.9568000000000003  1.7465900000000001 30.3284999999999982
  6.2979099999999999  2.6016499999999998 29.9533999999999985
  4.6932600000000004  6.4958799999999997  6.6342499999999998
  5.5152099999999997  6.8241699999999996  6.1640499999999996
  4.9779400000000003  6.5291699999999997  7.5575500000000000
  5.0044199999999996  3.3786200000000002  2.1501199999999998
  4.7557999999999998  3.2214100000000001  3.1140699999999999
  5.6661400000000004  4.0758200000000002  2.2909799999999998
  8.6069899999999997  1.6268199999999999 27.7717999999999989
  8.2286000000000001  0.8318489999999999 27.3365000000000009
  7.8920899999999996  2.2852800000000002 27.8324999999999996
  5.5419600000000004  2.0630099999999998  1.0049600000000001
  3.1842100000000002  8.3912600000000008 29.2498000000000005
  2.6159699999999999  0.4111850000000000 29.2429999999999986
  1.2244200000000001  1.6646900000000000  7.9846399999999997
  1.6642900000000000  1.6919299999999999  7.0794600000000001
  2.0304199999999999  0.7596490000000000  6.9321900000000003
  8.4977199999999993  5.8471599999999997 25.8131999999999984
  5.8465299999999996  1.8744300000000000  6.8558399999999997
  6.2714400000000001  2.1526000000000001  7.6638900000000003
  5.1776900000000001  1.2688100000000000  7.2471399999999999
  0.5063110000000000  7.2336799999999997  2.3941800000000000
  1.2725700000000000  7.5121300000000000  1.9204900000000000
  7.1387200000000002  7.9298400000000004  5.9196900000000001
  7.8988800000000001  7.3868400000000003  6.1153500000000003
  5.1880100000000002  7.4202700000000004 26.1657000000000011
  6.1324699999999996  7.5875199999999996 26.4436999999999998
  9.2264099999999996  1.2030099999999999  6.9659800000000001
  6.5804499999999999  8.1737400000000004 25.7880000000000003
  8.8208800000000007  1.3901600000000001  6.1267199999999997
  7.3792299999999997  0.0290053000000000  6.2990899999999996
  9.5117499999999993  0.9806840000000000  5.4265800000000004
  8.7763700000000000  6.8261399999999997 28.4131000000000000
  8.2058599999999995  7.2540500000000003 29.1245000000000012
  9.6443200000000004  6.6219500000000000 28.8042000000000016
  2.5364100000000001  4.2673600000000000  6.2513699999999996
  2.7810700000000002  4.7129000000000003  7.0509300000000001
  1.3973700000000000  4.1972699999999996 26.6935000000000002
  2.1146199999999999  4.4682500000000003 27.2990999999999993
  2.7125100000000000  6.6863500000000000 25.4000999999999983
  3.5341300000000002  6.1493099999999998 25.6986999999999988
  2.2600899999999999  3.3779400000000002  6.5650199999999996
  3.7937900000000000  5.5686999999999998 24.9879999999999995
  4.0975599999999996  0.3945600000000000  3.7744599999999999
  4.9086900000000000  9.2610799999999998  3.3099599999999998
  4.0030200000000002  1.2688200000000001  4.1009000000000002
  1.5224400000000000  5.4278399999999998 28.8360999999999983
  1.1111400000000000  6.1347399999999999 29.3790000000000013
  7.2299600000000002 -0.1955830000000000  3.9907300000000001
  1.3748000000000000  5.9732599999999998  0.1478300000000000
  7.1521699999999999  0.4225220000000000  3.2726799999999998
  7.2576599999999996  8.5361399999999996  2.4649100000000002
  3.2888600000000001  8.2046100000000006  2.3061400000000001
  7.5757300000000001  4.1647800000000004  0.0389105000000000
  7.9853800000000001  4.4777399999999998 29.3547000000000011
  6.9542900000000003  4.8556699999999999  0.2372460000000000
  7.8926400000000001  0.4409170000000000 24.6777000000000015
  8.7434999999999992  0.1678240000000000 24.2740000000000009
  3.8479100000000002  4.4415300000000002 22.6761000000000017
  3.4301800000000000  4.3202199999999999 23.5271000000000008
  3.3314100000000000  3.7637700000000001  1.2853300000000001
  4.0037700000000003  3.6245300000000000 24.0322999999999993
  2.5200499999999999  4.0246599999999999  0.7556840000000000
  7.6765100000000004  1.1878700000000000 24.0795999999999992
  2.8375200000000000  3.6748900000000000 -0.1194300000000000
  2.2759399999999999  8.0108499999999996  6.1617199999999999
  1.4539500000000001  7.3157899999999998  6.2593800000000002
  3.1013299999999999  7.6123399999999997  6.4405599999999996
  0.3537230000000000  2.7687100000000000 26.0659999999999989
  2.6282999999999999  5.0622900000000000 26.7326000000000015
 10.2013999999999996  4.0658500000000002  4.7970199999999998
  9.6157900000000005  3.9765700000000002  5.6118199999999998
  4.0078300000000002  3.4244400000000002  5.3097300000000001
  9.4430800000000001  2.9616400000000001  5.6549199999999997
  4.4459000000000000  2.8313000000000001  4.6837600000000004
  1.1903200000000000  2.2320199999999999 25.9853999999999985
  5.0939899999999998  2.4476900000000001  5.3454400000000000
  0.1218110000000000  0.2205550000000000 23.2380999999999993
 -0.3327740000000000  8.9021100000000004 22.4028999999999989
  0.9218650000000000  0.7894480000000000 23.0735999999999990
  0.6670210000000000  1.5453900000000000  0.1205930000000000
  4.4523099999999998  2.5678999999999998 28.5768999999999984
  3.4965000000000002  2.4390200000000002 28.6584000000000003
  2.0632000000000001  5.1993000000000000  4.2537399999999996
  3.1129899999999999  3.1428300000000000 28.1073999999999984
  1.4025300000000001  4.7733900000000000  3.7000899999999999
  1.1028500000000001  5.4042899999999996  3.0661700000000001
  3.0235300000000001  7.5780900000000004  1.5963900000000000
  3.0110299999999999  8.0344400000000000  0.7175380000000000
  9.8230299999999993  2.3364600000000002 26.6007999999999996
  8.2291799999999995  2.7950499999999998  2.1636500000000001
  7.9196499999999999  2.9536699999999998  1.2739100000000001
  7.8715599999999997  1.9831700000000001  2.4903800000000000
  0.6843790000000000  2.1770200000000002  1.9719599999999999
  9.8910199999999993  2.4566100000000000  1.9523200000000001
  1.2549100000000000  2.8711700000000002  1.6385099999999999
  7.2992600000000003  5.2588999999999997 26.9956999999999994
  6.8372900000000003  6.0425000000000004 26.6326999999999998
  7.9203299999999999  5.7497699999999998 27.5718999999999994
  4.9457599999999999  2.5791400000000002 25.3399000000000001
  5.6329200000000004  2.3307300000000000 24.7030999999999992
  4.3347199999999999  1.7853900000000000 25.3902000000000001
  6.8530300000000004  4.6892300000000002  6.1406099999999997
  6.1707599999999996  4.4406999999999996  6.7956899999999996
  7.6456099999999996  4.3720699999999999  6.4737600000000004
