Cu O  H  O  H  O  H  O  H  O  H  O  H  O  H  O  H  O  H  O  H  O  H  O  H  O  H  O  H  O  H  O  H  O  H  O  H  O  H  O  H  O  H  O  H  O  H  O  H  O  H  O  H  O  H  O  H  O  H  O  H  O  H  O  H  O  H  O  H  O  H  O  H  O  H  O  H  O  H  O  H  O  H  O  H  O  H  O  H  O  H  O  H  O  H  O  H  O  H  O  H 
 1.0000000000000000
    10.1403771778044529    0.0000000000000000    0.0000000000000000
     0.0000000000000000    8.7818242399346058    0.0000000000000000
     0.0000000000000000    0.0000000000000000   30.1311271579000000
 Cu  O   H   O   H   O   H   O   H   O   H   O   H   O   H   O   H   O   H   O   H   O   H   O   H   O   H   O   H   O   H   O   H   O   H   O   H   O   H   O   H   O   H   O   H   O   H   O   H   O   H   O   H   O   H   O   H   O   H   O   H   O   H   O   H   O   H   O   H   O   H   O   H   O   H   O   H   O   H   O   H   O   H   O   H   O   H   O   H   O   H   O   H   O   H   O   H   O   H   O   H  
  96   1   2   1   2   1   2   1   2   1   2   1   2   1   2   1   2   1   2   1   2   1   2   1   2   1   2   1   2   1   2   1   1   1   2   1   2   1   3   1   2   1   2   1   2   1   1   1   2   1   2   1   2   1   2   1   2   1   1   1   2   1   3   1   2   1   2   1   2   1   2   1   2   1   2   1   2   1   2   1   2   1   2   1   4   1   2   1   1   1   2   1   2   1   2   1   2   1   2   1   2
Cartesian
  7.0143500000000003  1.1882900000000001  9.8028899999999997
  9.5285299999999999  1.3089000000000000  9.8973800000000001
  1.9296300000000000  1.2442800000000001 10.0852000000000004
  4.3082700000000003  1.1552899999999999  9.7035699999999991
  8.1654199999999992  3.4661900000000001  9.9338700000000006
  0.5625869999999999  3.4547599999999998  9.8948099999999997
  3.1071900000000001  3.4300199999999998  9.8109900000000003
  5.6668000000000003  3.4224299999999999  9.8577399999999997
  9.5427700000000009  5.5067000000000004  9.9603800000000007
  1.9354600000000000  5.6267300000000002  9.9624400000000009
  4.4515099999999999  5.6360000000000001  9.9874500000000008
  6.9473500000000001  5.5207499999999996 10.1039999999999992
  0.4062420000000000  7.8663699999999999  9.8707100000000008
  3.0280800000000001  7.7504200000000001  9.8659199999999991
  5.7033800000000001  7.7733600000000003  9.7818500000000004
  8.0556199999999993  7.7421100000000003  9.8792100000000005
  5.7054700000000000  1.9708100000000000 11.9770000000000003
  8.2782400000000003  1.8621600000000000 11.9255999999999993
  0.7645170000000000  1.9104200000000000 12.0030000000000001
  3.2000799999999998  1.9393000000000000 11.9288000000000007
  7.0280199999999997  4.1106600000000002 12.0313999999999997
  9.5713100000000004  4.1550200000000004 11.9382000000000001
  1.9892500000000000  4.1032999999999999 11.9441000000000006
  4.5157600000000002  4.1051799999999998 11.8740000000000006
  8.2018500000000003  6.3746299999999998 12.0462000000000007
  0.5897710000000000  6.2079000000000004 11.9392999999999994
  3.2155399999999998  6.3753799999999998 11.9146000000000001
  5.6030499999999996  6.3082599999999998 12.1140000000000008
  9.5126000000000008  8.4053799999999992 12.0004000000000008
  1.8565799999999999  8.3967500000000008 11.9106000000000005
  4.4185699999999999  8.5765600000000006 11.9647000000000006
  7.0415000000000001  8.5052900000000005 11.9654000000000007
  5.7039600000000004  0.3659090000000000 14.0305999999999997
  8.2390600000000003  0.3659090000000000 14.0305999999999997
  0.6337739999999999  0.3659090000000000 14.0305999999999997
  3.1688700000000001  0.3659090000000000 14.0305999999999997
  6.9715100000000003  2.5613700000000001 14.0305999999999997
  9.5066000000000006  2.5613700000000001 14.0305999999999997
  1.9013199999999999  2.5613700000000001 14.0305999999999997
  4.4364200000000000  2.5613700000000001 14.0305999999999997
  8.2390600000000003  4.7568200000000003 14.0305999999999997
  0.6337739999999999  4.7568200000000003 14.0305999999999997
  3.1688700000000001  4.7568200000000003 14.0305999999999997
  5.7039600000000004  4.7568200000000003 14.0305999999999997
  9.5066000000000006  6.9522800000000000 14.0305999999999997
  1.9013199999999999  6.9522800000000000 14.0305999999999997
  4.4364200000000000  6.9522800000000000 14.0305999999999997
  6.9715100000000003  6.9522800000000000 14.0305999999999997
  6.9715100000000003  1.0977300000000001 16.1005000000000003
  9.5066000000000006  1.0977300000000001 16.1005000000000003
  1.9013199999999999  1.0977300000000001 16.1005000000000003
  4.4364200000000000  1.0977300000000001 16.1005000000000003
  8.2390600000000003  3.2931800000000000 16.1005000000000003
  0.6337739999999999  3.2931800000000000 16.1005000000000003
  3.1688700000000001  3.2931800000000000 16.1005000000000003
  5.7039600000000004  3.2931800000000000 16.1005000000000003
  9.5066000000000006  5.4886400000000002 16.1005000000000003
  1.9013199999999999  5.4886400000000002 16.1005000000000003
  4.4364200000000000  5.4886400000000002 16.1005000000000003
  6.9715100000000003  5.4886400000000002 16.1005000000000003
  0.6337739999999999  7.6840999999999999 16.1005000000000003
  3.1688700000000001  7.6840999999999999 16.1005000000000003
  5.7039600000000004  7.6840999999999999 16.1005000000000003
  8.2390600000000003  7.6840999999999999 16.1005000000000003
  5.7546900000000001  1.9352900000000000 18.1691000000000003
  8.3785299999999996  1.8902600000000001 18.2147000000000006
  0.7324800000000000  1.8731199999999999 18.1358999999999995
  3.2989700000000002  1.8458000000000001 18.3312999999999988
  6.9931599999999996  4.1025400000000003 18.2140999999999984
  9.6613600000000002  4.1222000000000003 18.0712000000000010
  1.9574700000000000  3.9995699999999998 18.1925999999999988
  4.4699700000000000  4.0166100000000000 18.2142000000000017
  8.3354700000000008  6.2870200000000001 18.1540999999999997
  0.7563750000000000  6.2886600000000001 18.2235000000000014
  3.2862100000000001  6.2728500000000000 18.2424999999999997
  5.8673799999999998  6.1334299999999997 18.0748999999999995
  9.5641499999999997  8.4566400000000002 18.1017000000000010
  2.1101299999999998  8.4674800000000001 18.1419999999999995
  4.5514299999999999  8.4330099999999995 18.1818999999999988
  7.0985199999999997  8.4480000000000004 18.1052999999999997
  5.7903700000000002  0.3435770000000000 20.1673000000000009
  8.3257100000000008  0.3895870000000000 20.1348999999999982
  0.6618650000000000  0.4070890000000000 20.2299000000000007
  3.1911299999999998  0.4423470000000000 20.2685999999999993
  7.0656900000000000  2.6543999999999999 20.2131000000000007
  9.6467700000000001  2.6657199999999999 20.3043000000000013
  2.0052800000000000  2.6714500000000001 20.3256000000000014
  4.5210200000000000  2.5771099999999998 20.4356000000000009
  8.2436399999999992  4.7272600000000002 20.0770000000000017
  0.6341710000000000  4.8852200000000003 20.1117999999999988
  3.3247100000000001  4.7258399999999998 20.2996000000000016
  5.7161200000000001  4.7461599999999997 20.2075999999999993
  9.5349599999999999  7.1292700000000000 20.1033000000000008
  2.0160700000000000  7.1040299999999998 20.1377999999999986
  4.5600199999999997  7.0383599999999999 20.3082999999999991
  7.0282600000000004  6.8046199999999999 20.3359999999999985
  1.1802400000000000  4.7920999999999996  2.5457100000000001
  0.7153240000000000  4.8554199999999996  1.6237699999999999
  1.3280400000000001  5.6832200000000004  2.8335400000000002
  6.7026100000000000  7.4159600000000001  4.1102499999999997
  7.5644799999999996  7.8755199999999999  4.2300399999999998
  6.6460299999999997  6.8050199999999998  4.8508100000000001
  8.7104599999999994  2.5619600000000000  1.6774300000000000
  5.0701499999999999  7.9810800000000004  3.7113600000000000
  8.1737300000000008  1.8351900000000001  1.9435899999999999
  0.6513000000000000  1.6907300000000001 24.3076000000000008
  1.5627500000000001  1.7484900000000001 23.9543999999999997
 10.1850000000000005  2.1836600000000002 23.7754000000000012
  3.1849099999999999  2.4985700000000000 23.5482000000000014
  3.4436300000000002  3.3109999999999999 24.0649000000000015
  3.0156000000000001  2.9701700000000000 22.7364999999999995
  1.8400000000000001  3.5764499999999999  6.5955399999999997
 10.0553000000000008  0.5624970000000000  3.9559700000000002
  1.2422800000000001  3.4678900000000001  7.3550800000000001
  8.6490899999999993  3.3768799999999999 23.0878000000000014
  1.2600899999999999  8.0345399999999998  7.1217600000000001
  8.9215900000000001  3.9817700000000000 23.8453000000000017
  9.1686800000000002  0.3388240000000000  3.7213400000000001
  1.5535500000000000  0.7429890000000000  1.1091000000000000
  8.6511099999999992  1.1428199999999999  4.0535800000000002
  9.3894500000000001  7.7719199999999997 28.2643999999999984
 10.1329999999999991  7.3443100000000001 27.6763000000000012
  3.2802500000000001  1.6974499999999999 26.5971000000000011
  3.2986100000000000  2.5686800000000001 26.9972999999999992
  4.0469200000000001  3.0447400000000000 26.5376000000000012
  7.2389700000000001  7.2409200000000000  1.2991999999999999
  1.0683600000000000  1.6528099999999999  1.1795300000000000
  1.1953100000000001  1.9733300000000000  0.2217920000000000
  4.4715999999999996  1.7049700000000001 28.4446000000000012
  1.3514299999999999  6.4211700000000000 27.6229000000000013
  2.1977099999999998  6.7479399999999998 27.2733999999999988
  1.3237500000000000  5.4653600000000004 27.2206000000000010
  1.9243399999999999  7.8999899999999998  6.4654499999999997
  2.3457100000000000  4.3508300000000002  6.7343799999999998
  2.4661700000000000  8.7113600000000009  6.4109499999999997
  1.2040400000000000  4.2842399999999996 26.2991999999999990
  1.5762100000000001  3.4089000000000000 26.5028000000000006
  0.2340450000000000  4.1355199999999996 26.2425999999999995
  4.1577299999999999  8.3597099999999998  3.6438799999999998
  8.9195700000000002  3.8043900000000002 22.2773000000000003
  4.4275799999999998  0.2325980000000000  2.9918200000000001
  5.6584099999999999  2.3891600000000000  6.1540499999999998
  5.7504600000000003  2.1768000000000001  7.1189099999999996
  7.7387899999999998  2.4310700000000001  4.5976999999999997
  8.3810900000000004  3.1303899999999998  4.9066999999999998
  7.0168299999999997  2.3096999999999999  5.2050299999999998
  4.7931200000000000  7.4380400000000000 29.4548999999999985
  4.4008000000000003  6.5507400000000002 29.2720999999999982
  5.4498400000000000  7.2747799999999998 30.1325000000000003
  2.3349299999999999  7.8618100000000002 23.3284999999999982
  3.0862599999999998  7.3120200000000004 23.0509999999999984
  2.0886200000000001  8.5319400000000005 22.6428000000000011
  5.2787100000000002  3.2713399999999999  6.2373599999999998
  6.4047400000000003  6.7696199999999997  1.1389800000000001
  6.3430499999999999  6.3642599999999998  1.9966600000000001
  5.9100299999999999  4.3768000000000002 25.4756000000000000
  5.6904599999999999  3.4722599999999999 25.5202999999999989
  5.8117700000000001  2.9283899999999998 24.6756999999999991
  9.5418400000000005  8.7477900000000002 27.9996000000000009
  7.3744199999999998  4.4480199999999996 29.7698999999999998
  7.0829000000000004  5.1838899999999999  0.1929900000000000
  7.8195899999999998  3.8202799999999999  0.2085050000000000
  5.1695300000000000  1.2427600000000001 28.8847999999999985
  4.9253900000000002  0.3065560000000000 28.9381999999999984
  1.5912700000000000  5.0073900000000000 23.5699000000000005
  1.3792000000000000  4.6578600000000003 24.4164999999999992
  8.9175799999999992  4.7111200000000002  6.5494700000000003
  8.2652300000000007  5.2779900000000000  7.0437099999999999
  7.3012100000000002  5.3086700000000002 28.2551999999999985
  7.9065799999999999  4.6791499999999999  7.8177599999999998
  7.3237300000000003  6.0375699999999997 27.6078000000000010
  1.0801099999999999  5.8087999999999997 23.3523999999999994
  7.9484599999999999  6.7816099999999997 27.8738999999999990
  2.2756900000000000  8.1885200000000005  0.9140230000000000
  3.1079200000000000  8.0948600000000006  0.4152030000000000
  1.6795500000000001  7.4819399999999998  0.6059400000000000
  7.3800800000000004  2.4153699999999998 27.3375999999999983
  6.9079300000000003  2.8877100000000002 26.6149999999999984
  2.0616200000000000  1.4398500000000001  4.4340299999999999
  1.1828900000000000  1.7000800000000000  4.0213799999999997
  3.4073300000000000  5.2772800000000002 23.0553999999999988
  4.2037800000000001  5.8266799999999996 23.1271999999999984
  6.6404600000000000  1.8974899999999999 27.6798000000000002
  4.5199100000000003  5.8210800000000003 22.2282000000000011
  3.6760400000000000  3.7313999999999998  2.3592800000000000
  4.1531200000000004  4.3504500000000004  2.9304399999999999
  2.7821099999999999  4.1300900000000000  2.2305100000000002
  2.7239100000000001  2.1035400000000002  6.2159500000000003
  3.1817700000000002  1.2937300000000000  5.8390399999999998
  5.1298100000000000  1.5421700000000000  0.7792010000000000
  4.1293199999999999  1.4073199999999999  5.8714899999999997
  5.5880000000000001  1.6102500000000000  1.6502500000000000
  5.3117799999999997  2.4808500000000002  1.9256899999999999
  2.0163700000000002  2.9163399999999999 28.7112000000000016
  3.6027700000000000  5.6874399999999996  6.9604900000000001
  4.0404200000000001  5.6602399999999999  7.8489000000000004
  3.1430600000000002  6.5168999999999997  6.9081700000000001
  7.2901199999999999  8.1120900000000002 23.7930999999999990
  7.0669899999999997  0.2755110000000000 23.6420999999999992
  6.8099699999999999  5.1244199999999998  6.1054899999999996
  5.9798600000000004  5.1319200000000000  5.5930299999999997
  9.2302400000000002  7.4732500000000002  7.2821499999999997
  5.3704299999999998  5.7047999999999996  6.0977199999999998
  9.3319799999999997  8.3327600000000004  6.9018199999999998
  7.1055400000000004  7.7859200000000000 22.8862999999999985
  9.2487399999999997  0.0032453100000000  7.8094900000000003
  0.3938370000000000  6.1162000000000001  0.3607130000000000
  9.8398800000000008  6.6873399999999998  0.7516230000000000
  0.0586049000000000  6.0448100000000000 29.6302999999999983
  6.3994000000000000  1.9076200000000001 23.4508000000000010
  1.3745499999999999  2.1058100000000000  3.1263100000000001
  9.2832100000000004  8.4632000000000005  2.1072099999999998
  9.0365400000000005  8.1431400000000007  1.2499300000000000
  0.4548390000000000  3.6686999999999999  5.2018599999999999
  9.3088800000000003  0.0118376000000000  0.6178500000000000
  9.7675900000000002  4.0484099999999996  4.8822400000000004
  5.9031099999999999  1.9166200000000000 22.6463999999999999
 -0.2248940000000000  4.2491099999999999  3.9116800000000000
  5.3589000000000002  6.5862499999999997 25.8137000000000008
  6.0155300000000000  6.5490000000000004 26.4966000000000008
  5.6826600000000003  7.2249900000000000 25.1665999999999990
  9.5595300000000005  2.0927899999999999  1.4998499999999999
  6.0860500000000002  4.5235000000000003  3.9874999999999998
  6.4269200000000000  4.2770200000000003  3.0880100000000001
  3.7132399999999999  4.1997299999999997  0.4705140000000000
  6.8754799999999996  3.4338899999999999  3.2685399999999998
  4.0497600000000000  4.3176899999999998 29.7132000000000005
  4.9493499999999999  4.0364399999999998 29.7799000000000014
  1.1205900000000000  2.8221900000000000 28.9213999999999984
  0.7936470000000000  2.3652299999999999 28.1693999999999996
  7.2717000000000001  2.4311300000000000 23.3139000000000003
 10.0363000000000007  1.4045799999999999 26.9682999999999993
  0.1980460000000000  1.3723500000000000 26.0397999999999996
  9.0474599999999992  1.7266800000000000 26.9412999999999982
  9.8206799999999994  7.4255399999999998 24.1587999999999994
  0.5593490000000000  7.9074999999999998 24.1223999999999990
  9.1446900000000007  8.0570299999999992 23.8796999999999997
  3.2159300000000002  8.5159300000000009 25.7914999999999992
  3.8405999999999998  7.8147799999999998 25.9433000000000007
  2.8586999999999998  8.4309399999999997 24.8652000000000015
  9.0404800000000005  5.1736500000000003 25.6007999999999996
  9.2896300000000007  6.0800000000000001 25.2392000000000003
  8.3605400000000003  5.3436800000000000 26.3317000000000014
  1.7340899999999999  7.2121700000000004  3.4642200000000001
  2.2607800000000000  7.8646200000000004  2.9699100000000000
  1.8604099999999999  7.2652099999999997  4.3801899999999998
