Cu O  H  O  H  O  H  O  H  O  H  O  H  O  H  O  H  O  H  O  H  O  H  O  H  O  H  O  H  O  H  O  H  O  H  O  H  O  H  O  H  O  H  O  H  O  H  O  H  O  H  O  H  O  H  O  H  O  H  O  H  O  H  O  H  O  H  O  H  O  H  O  H  O  H  O  H  O  H  O  H  O  H  O  H  O  H  O  H  O  H  O  H  O  H  O  H  O  H  O  H 
 1.0000000000000000
    10.1403771778044529    0.0000000000000000    0.0000000000000000
     0.0000000000000000    8.7818242399346058    0.0000000000000000
     0.0000000000000000    0.0000000000000000   30.1311271579000000
 Cu  O   H   O   H   O   H   O   H   O   H   O   H   O   H   O   H   O   H   O   H   O   H   O   H   O   H   O   H   O   H   O   H   O   H   O   H   O   H   O   H   O   H   O   H   O   H   O   H   O   H   O   H   O   H   O   H   O   H   O   H   O   H   O   H   O   H   O   H   O   H   O   H   O   H   O   H   O   H   O   H   O   H   O   H   O   H   O   H   O   H   O   H   O   H   O   H   O   H   O   H  
  96   1   2   1   2   1   2   1   2   1   2   1   2   1   2   1   2   1   2   1   2   1   2   1   2   1   2   1   2   1   2   1   1   1   2   1   2   1   3   1   2   1   2   1   2   1   1   1   2   1   2   1   2   1   2   1   2   1   1   1   2   1   3   1   2   1   2   1   2   1   2   1   2   1   2   1   2   1   2   1   2   1   2   1   4   1   2   1   1   1   2   1   2   1   2   1   2   1   2   1   2
Cartesian
  7.0504600000000002  1.1558200000000001  9.8207900000000006
  9.5374999999999996  1.1900599999999999  9.9687199999999994
  1.9982000000000000  1.1936700000000000  9.7025900000000007
  4.3879500000000000  1.0971900000000001  9.7679500000000008
  8.3471499999999992  3.2599399999999998 10.0555000000000003
  0.7962620000000000  3.3330299999999999  9.9539899999999992
  3.2438899999999999  3.3326400000000000  9.8822899999999994
  5.7555399999999999  3.2777500000000002  9.9415399999999998
  9.5138499999999997  5.5300599999999998  9.8811000000000000
  1.9972500000000000  5.6650799999999997  9.8821700000000003
  4.5050200000000000  5.5943100000000001  9.9237400000000004
  7.1544299999999996  5.4401299999999999  9.7743900000000004
  0.7659270000000000  7.7429399999999999  9.8633799999999994
  3.2619199999999999  7.7656900000000002  9.9324399999999997
  5.8922200000000000  7.6917400000000002  9.8781400000000001
  8.2992699999999999  7.6054100000000000  9.9466000000000001
  5.5583999999999998  1.8376100000000000 11.9004999999999992
  8.3061699999999998  1.8597500000000000 12.0721000000000007
  0.8058250000000000  1.8837500000000000 12.0086999999999993
  3.1160399999999999  1.8269899999999999 11.9330999999999996
  7.0278400000000003  3.9290799999999999 12.0322999999999993
  9.5872499999999992  4.0204199999999997 12.0455000000000005
  2.0411899999999998  4.1083999999999996 11.8183000000000007
  4.5612800000000000  4.0311700000000004 11.8856999999999999
  8.3386099999999992  6.2471899999999998 11.9640000000000004
  0.7241320000000000  6.2455600000000002 11.9812999999999992
  3.1968800000000002  6.3327499999999999 11.9323999999999995
  5.7525300000000001  6.1240600000000001 11.9292999999999996
  9.5963799999999999  8.5128000000000004 11.8765000000000001
  1.9555300000000000  8.5130999999999997 12.0586000000000002
  4.6446300000000003  8.3283799999999992 11.8795000000000002
  7.0004299999999997  8.4265500000000007 11.9715000000000007
  5.7039600000000004  0.3659090000000000 14.0305999999999997
  8.2390600000000003  0.3659090000000000 14.0305999999999997
  0.6337739999999999  0.3659090000000000 14.0305999999999997
  3.1688700000000001  0.3659090000000000 14.0305999999999997
  6.9715100000000003  2.5613700000000001 14.0305999999999997
  9.5066000000000006  2.5613700000000001 14.0305999999999997
  1.9013199999999999  2.5613700000000001 14.0305999999999997
  4.4364200000000000  2.5613700000000001 14.0305999999999997
  8.2390600000000003  4.7568200000000003 14.0305999999999997
  0.6337739999999999  4.7568200000000003 14.0305999999999997
  3.1688700000000001  4.7568200000000003 14.0305999999999997
  5.7039600000000004  4.7568200000000003 14.0305999999999997
  9.5066000000000006  6.9522800000000000 14.0305999999999997
  1.9013199999999999  6.9522800000000000 14.0305999999999997
  4.4364200000000000  6.9522800000000000 14.0305999999999997
  6.9715100000000003  6.9522800000000000 14.0305999999999997
  6.9715100000000003  1.0977300000000001 16.1005000000000003
  9.5066000000000006  1.0977300000000001 16.1005000000000003
  1.9013199999999999  1.0977300000000001 16.1005000000000003
  4.4364200000000000  1.0977300000000001 16.1005000000000003
  8.2390600000000003  3.2931800000000000 16.1005000000000003
  0.6337739999999999  3.2931800000000000 16.1005000000000003
  3.1688700000000001  3.2931800000000000 16.1005000000000003
  5.7039600000000004  3.2931800000000000 16.1005000000000003
  9.5066000000000006  5.4886400000000002 16.1005000000000003
  1.9013199999999999  5.4886400000000002 16.1005000000000003
  4.4364200000000000  5.4886400000000002 16.1005000000000003
  6.9715100000000003  5.4886400000000002 16.1005000000000003
  0.6337739999999999  7.6840999999999999 16.1005000000000003
  3.1688700000000001  7.6840999999999999 16.1005000000000003
  5.7039600000000004  7.6840999999999999 16.1005000000000003
  8.2390600000000003  7.6840999999999999 16.1005000000000003
  5.5989699999999996  1.7653099999999999 18.1091000000000015
  8.3329299999999993  1.9439800000000000 18.1024999999999991
  0.6883500000000000  1.9270799999999999 18.1076000000000015
  3.1293299999999999  1.8492700000000000 18.1933000000000007
  6.8958199999999996  4.1135599999999997 18.1894999999999989
  9.3706399999999999  4.1303500000000000 18.0972000000000008
  1.8553100000000000  4.0218699999999998 18.1523000000000003
  4.4973099999999997  4.1251800000000003 18.0940000000000012
  8.2164400000000004  6.2235600000000000 18.2437000000000005
  0.6565950000000000  6.2533399999999997 18.1439999999999984
  3.1377899999999999  6.1926399999999999 18.1369000000000007
  5.7530200000000002  6.3076499999999998 18.0592000000000006
  9.3749800000000008  8.4773999999999994 18.1720000000000006
  1.9342999999999999  8.4439499999999992 18.1751000000000005
  4.3773299999999997  8.3924099999999999 18.0370999999999988
  6.9633200000000004  8.5467700000000004 18.1048000000000009
  5.6403999999999996  0.4156970000000000 20.3584999999999994
  8.1019299999999994  0.3579020000000000 20.2489999999999988
  0.4430200000000000  0.2810970000000000 20.2761999999999993
  3.0514299999999999  0.4006300000000000 20.2573000000000008
  6.9269100000000003  2.5402499999999999 20.1814000000000000
  9.3859499999999993  2.5596999999999999 20.0849000000000011
  1.7783100000000001  2.5416799999999999 20.2604000000000006
  4.4135000000000000  2.5837800000000000 20.2517999999999994
  8.1349000000000000  4.9026300000000003 20.2872999999999983
  0.5171850000000000  4.7252000000000001 20.1777000000000015
  3.0931899999999999  4.8165699999999996 20.1795000000000009
  5.5449900000000003  4.8124799999999999 20.2047999999999988
  9.5758399999999995  6.9064699999999997 20.2874000000000017
  1.7762300000000000  7.0125200000000003 20.1695999999999991
  4.4234299999999998  6.9374599999999997 20.0474999999999994
  6.8323900000000002  6.9565900000000003 20.1203000000000003
  8.1713199999999997  5.1023500000000004  3.0964999999999998
  7.2121599999999999  4.9398099999999996  3.1938499999999999
  8.1682100000000002  5.7249400000000001  3.9201700000000002
  7.3282600000000002  0.0856403000000000  5.3784999999999998
  6.5449700000000002  0.2773680000000000  5.9227999999999996
  7.3023999999999996  7.8346200000000001  5.3432000000000004
  7.3043399999999998  3.5431499999999998 28.1075000000000017
  5.6952400000000001  7.1709800000000001 23.2093999999999987
  7.0628099999999998  4.4564300000000001 28.4172000000000011
  7.3271899999999999  0.4386470000000000 25.4104999999999990
  6.9109499999999997  8.5866500000000006 24.7808999999999990
  6.7052100000000001  1.1313100000000000 25.4079000000000015
  5.5986399999999996  5.5960500000000000  6.8229499999999996
  5.6830200000000000  4.6977700000000002  7.1616799999999996
  5.4641799999999998  6.0724099999999996  7.6082400000000003
  5.6483400000000001  2.7033700000000001 25.3506000000000000
  0.4351950000000000  0.2759680000000000 26.2841999999999985
  5.2938900000000002  2.9765400000000000 24.4948000000000015
  8.1738099999999996  7.9968500000000002 27.5581999999999994
  9.9390699999999992  2.6058599999999998 25.8760000000000012
  7.7779900000000000  8.3304299999999998 26.6987999999999985
 10.0459999999999994  0.9203600000000000 25.7663000000000011
  9.2732399999999995  6.3349399999999996 24.4792999999999985
  9.1959499999999998  0.5566280000000000 25.7153999999999989
  8.6129599999999993  1.3660300000000001 29.1625000000000014
  9.3330300000000008  1.8344600000000000 29.5515000000000008
  3.3283600000000000  3.3467099999999999  0.0979923000000000
  2.6221899999999998  2.7176700000000000 -0.0202342000000000
  1.8476699999999999  3.0653999999999999 29.6969999999999992
  2.7780800000000001  6.2945900000000004 22.8906999999999989
  9.5958500000000004  6.5907000000000000 23.5911000000000008
  9.6519499999999994  5.8218399999999999 23.0102000000000011
  6.5101300000000002  2.4439600000000001  7.5356699999999996
  2.9686800000000000  2.2992200000000000 26.2445999999999984
  2.7220700000000000  2.7213400000000001 25.4171000000000014
  3.0141100000000001  1.3485799999999999 26.1423999999999985
  9.8394200000000005  3.4833500000000002 26.4177999999999997
  4.8670900000000001  2.5368599999999999 25.8712000000000018
  0.5366640000000000  3.9487899999999998 26.2471999999999994
  0.9430740000000000  1.7383100000000000  1.8665300000000000
  1.5451100000000000  2.2814700000000001  1.3346400000000000
  1.4464500000000000  1.5941300000000000  2.7141600000000001
  6.3629300000000004  6.9260000000000002 23.8915000000000006
  8.4717599999999997 -0.0271035000000000 28.1299999999999990
  7.1588300000000000  6.5359600000000002 23.4612000000000016
  4.0753700000000004  0.1257440000000000  5.8033999999999999
  4.1690800000000001  0.6065810000000000  6.6479200000000001
  9.4655500000000004  5.6822499999999998  0.8615090000000000
  8.7436900000000009  6.0998400000000004  0.2387110000000000
  8.9732900000000004  5.5653199999999998  1.7165699999999999
  9.9925599999999992  0.3287740000000000  5.1600799999999998
  0.2523970000000000  1.1151800000000001  5.6315400000000002
  9.0428599999999992  0.5391280000000001  5.1626200000000004
  7.4542299999999999  6.0377599999999996 29.3273000000000010
  7.4691900000000002  6.7323599999999999 28.5201999999999991
  6.6732399999999998  6.4209100000000001 29.7737000000000016
  3.6652800000000001  8.0101300000000002  5.9790099999999997
  3.3328300000000000  5.8321699999999996 23.5516000000000005
  3.8840300000000001  5.2296100000000001 23.0155999999999992
  1.6589600000000000  6.5177399999999999  4.3177599999999998
  1.7327300000000001  7.3166500000000001  3.7387800000000002
  1.0661200000000000  7.9614200000000004  4.1062399999999997
  8.1250900000000001  2.0540300000000000 28.6098999999999997
  5.8560299999999996  5.9015100000000000 26.9131999999999998
  5.5927899999999999  6.4764099999999996 26.1479999999999997
  5.1123000000000003  5.8536299999999999 27.4630000000000010
  6.4859299999999998  2.9070600000000000  6.6889000000000003
  7.4581600000000003  3.1843400000000002  6.5461200000000002
  8.8173999999999992  4.1087300000000004  6.6931000000000003
  9.0038099999999996  4.5128700000000004  7.5466800000000003
  7.3468600000000004  5.2846799999999998 26.0666000000000011
  7.7999000000000001  5.1295299999999999 25.1787999999999990
  4.5304900000000004  4.1288099999999996  4.4374000000000002
  8.4618000000000002  4.4232199999999997 25.3557999999999986
  5.0806699999999996  4.5283199999999999  3.6906300000000001
  9.4386500000000009  3.3878800000000000  6.6287599999999998
  4.6249599999999997  4.2112699999999998  2.8958699999999999
  1.8855700000000000  5.0211800000000002 26.0552999999999990
  1.5480200000000000  5.9276799999999996 26.2480000000000011
  2.2272900000000000  5.1182200000000000 25.1546999999999983
  3.1386200000000000  1.6574400000000000  3.7130700000000001
  3.4731000000000001  1.0462800000000001  4.3332800000000002
  6.1412300000000002  4.5184499999999996 23.7074999999999996
  5.6872299999999996  4.0871899999999997 22.9688000000000017
  1.5779399999999999  0.6386010000000000 24.0993999999999993
  1.7768900000000001  8.5122199999999992 24.1838000000000015
  2.8415900000000001  2.3872000000000000  4.2964000000000002
  1.0847000000000000  7.8812899999999999 23.8669000000000011
  2.8057400000000001  6.4077700000000002  6.7325499999999998
  1.8319300000000001  6.5887000000000002  6.6873100000000001
  2.8803500000000000  6.4636399999999998  7.6844700000000001
  9.8900799999999993  7.1531300000000000 27.4830000000000005
  0.6830470000000000  7.1024399999999996 27.3527999999999984
  5.2485099999999996  3.6765500000000002  0.9250570000000000
  1.1369400000000001  7.2301700000000002 28.1871000000000009
  4.4669699999999999  4.1753400000000003  1.0931500000000001
  4.7669199999999998  5.0566399999999998  0.8039809999999999
  1.8970899999999999  7.8255200000000000  0.2711110000000000
  5.6483900000000000  6.9803699999999997  0.9768430000000000
  4.8521000000000001  7.5500200000000000  0.9943370000000000
  6.3472499999999998  7.3648199999999999  1.5518900000000000
  8.7592599999999994  2.3627699999999998  2.7232500000000002
  8.8593899999999994  3.3330600000000001  2.8500600000000000
  3.4166500000000002  0.0852233000000000 23.4466999999999999
  4.1127900000000004  0.7232850000000000 23.6478999999999999
  6.9498600000000001  2.0981200000000002  0.1941740000000000
  4.4619099999999996  1.0746700000000000 22.8214000000000006
  6.0355699999999999  2.0088900000000001  0.5546740000000000
  9.6795000000000009  2.0116200000000002  2.6429499999999999
  6.0763299999999996  1.5860799999999999  1.4225800000000000
  3.0400700000000001  8.4394799999999996  1.3702900000000000
  2.6394500000000001  8.0495099999999997  2.1600400000000000
  2.8489700000000000  0.5856810000000000  1.4439200000000001
  0.1221690000000000  3.4256300000000000 29.2150999999999996
  6.3448500000000001  3.9390999999999998 22.1933000000000007
  3.3789699999999998  4.2607100000000004  6.5775800000000002
  3.7004899999999998  3.4688200000000000  6.1327600000000002
 -0.1723410000000000  7.6501400000000004  6.6225100000000001
  4.5899799999999997  3.3617100000000000  6.4659100000000000
  0.0428155000000000  6.7161799999999996  6.8164600000000002
 10.0205000000000002  3.4442300000000001 28.2638999999999996
 10.0584000000000007  6.6153000000000004  7.7917899999999998
  3.7479000000000000  8.0304699999999993 26.3699000000000012
  3.9550999999999998  8.4898299999999995 25.5587000000000018
  4.1360500000000000  8.6520600000000005 26.9941999999999993
  6.7308800000000000  3.3969700000000000 27.3715000000000011
  2.2972600000000001  4.4143200000000000  4.8740600000000001
  1.3868499999999999  4.6131200000000003  4.6722000000000001
  7.0146300000000004  0.2071450000000000  3.6679599999999999
  0.9021540000000000  4.4802200000000001  5.5144599999999997
  7.0182099999999998  0.1782660000000000  2.6492100000000001
  7.6907399999999999  0.8616570000000000  2.4625300000000001
  1.4015500000000001  7.1408800000000001 29.8880000000000017
  0.7841610000000000  6.7547100000000002  0.4110660000000000
  9.7764299999999995  4.1697699999999998 29.5679000000000016
  0.7782310000000000  2.2416600000000000  6.8140099999999997
  1.7362500000000001  2.2710599999999999  6.8667999999999996
  0.4951460000000000  2.0920700000000001  7.8723200000000002
  4.3397899999999998  1.1054900000000001 28.6264000000000003
  3.6754400000000000  1.6783800000000000 29.0783999999999985
  4.9997299999999996  0.9683920000000000 29.3503000000000007
  3.4462700000000002  5.3381299999999996 28.4589999999999996
  2.9540099999999998  5.9523900000000003 28.9942999999999991
  2.7707700000000002  5.2186500000000002 27.7433000000000014
  0.9149910000000000  3.0173199999999998 23.1827000000000005
  0.0503533000000000  2.7687400000000002 22.8451999999999984
  1.2774000000000001  3.5723400000000001 22.4376999999999995
  7.5762499999999999  6.3749700000000002  5.4203099999999997
  8.4393300000000000  6.3242000000000003  5.8755800000000002
  6.8255800000000004  6.0206799999999996  5.9882799999999996
