Cu O  H  O  H  O  H  O  H  O  H  O  H  O  H  O  H  O  H  O  H  O  H  O  H  O  H  O  H  O  H  O  H  O  H  O  H  O  H  O  H  O  H  O  H  O  H  O  H  O  H  O  H  O  H  O  H  O  H  O  H  O  H  O  H  O  H  O  H  O  H  O  H  O  H  O  H  O  H  O  H  O  H  O  H  O  H  O  H  O  H  O  H  O  H  O  H  O  H  O  H 
 1.0000000000000000
    10.1403771778044529    0.0000000000000000    0.0000000000000000
     0.0000000000000000    8.7818242399346058    0.0000000000000000
     0.0000000000000000    0.0000000000000000   30.1311271579000000
 Cu  O   H   O   H   O   H   O   H   O   H   O   H   O   H   O   H   O   H   O   H   O   H   O   H   O   H   O   H   O   H   O   H   O   H   O   H   O   H   O   H   O   H   O   H   O   H   O   H   O   H   O   H   O   H   O   H   O   H   O   H   O   H   O   H   O   H   O   H   O   H   O   H   O   H   O   H   O   H   O   H   O   H   O   H   O   H   O   H   O   H   O   H   O   H   O   H   O   H   O   H  
  96   1   2   1   2   1   2   1   2   1   2   1   2   1   2   1   2   1   2   1   2   1   2   1   2   1   2   1   2   1   2   1   1   1   2   1   2   1   3   1   2   1   2   1   2   1   1   1   2   1   2   1   2   1   2   1   2   1   1   1   2   1   3   1   2   1   2   1   2   1   2   1   2   1   2   1   2   1   2   1   2   1   2   1   4   1   2   1   1   1   2   1   2   1   2   1   2   1   2   1   2
Cartesian
  7.0953099999999996  1.1383000000000001  9.8554399999999998
  9.4926800000000000  1.2194400000000001  9.9388900000000007
  1.9615600000000000  1.2428999999999999  9.9517600000000002
  4.5653199999999998  1.3008900000000001  9.9212199999999999
  8.4255499999999994  3.3371599999999999 10.0169999999999995
  0.6481360000000000  3.2902700000000000  9.8813499999999994
  3.2136200000000001  3.3118200000000000  9.8547999999999991
  5.8962700000000003  3.3582100000000001  9.8806999999999992
  9.6130800000000001  5.6121800000000004  9.9251199999999997
  1.8962300000000001  5.6122300000000003  9.8102000000000000
  4.5433700000000004  5.5386300000000004  9.9774399999999996
  7.0830700000000002  5.6493099999999998  9.8359400000000008
  0.6499960000000000  7.7977999999999996  9.9114500000000003
  3.3295800000000000  7.7401999999999997  9.9612499999999997
  5.8002200000000004  7.8462199999999998  9.8786500000000004
  8.3371499999999994  7.8472400000000002 10.0059000000000005
  5.8162799999999999  1.8501099999999999 12.0188000000000006
  8.2751800000000006  1.8386700000000000 12.0129999999999999
  0.7641660000000000  1.7852399999999999 12.1096000000000004
  3.1747899999999998  1.9040999999999999 12.0922999999999998
  6.9859700000000000  4.0796599999999996 12.0062999999999995
  9.7304099999999991  3.9540199999999999 11.9756999999999998
  1.9655400000000001  4.0846799999999996 11.9185999999999996
  4.4925199999999998  3.9699700000000000 11.9443999999999999
  8.3600899999999996  6.2392300000000001 12.0547000000000004
  0.6489800000000000  6.2348200000000000 12.0208999999999993
  3.1377700000000002  6.1922300000000003 11.9290000000000003
  5.8009800000000000  6.2606000000000002 11.9239999999999995
  9.5670400000000004  8.5300899999999995 11.9535000000000000
  1.9994900000000000  8.5545100000000005 12.0299999999999994
  4.5411400000000004  8.4983699999999995 12.0058000000000007
  7.1158900000000003  8.3214400000000008 11.9876000000000005
  5.7039600000000004  0.3659090000000000 14.0305999999999997
  8.2390600000000003  0.3659090000000000 14.0305999999999997
  0.6337739999999999  0.3659090000000000 14.0305999999999997
  3.1688700000000001  0.3659090000000000 14.0305999999999997
  6.9715100000000003  2.5613700000000001 14.0305999999999997
  9.5066000000000006  2.5613700000000001 14.0305999999999997
  1.9013199999999999  2.5613700000000001 14.0305999999999997
  4.4364200000000000  2.5613700000000001 14.0305999999999997
  8.2390600000000003  4.7568200000000003 14.0305999999999997
  0.6337739999999999  4.7568200000000003 14.0305999999999997
  3.1688700000000001  4.7568200000000003 14.0305999999999997
  5.7039600000000004  4.7568200000000003 14.0305999999999997
  9.5066000000000006  6.9522800000000000 14.0305999999999997
  1.9013199999999999  6.9522800000000000 14.0305999999999997
  4.4364200000000000  6.9522800000000000 14.0305999999999997
  6.9715100000000003  6.9522800000000000 14.0305999999999997
  6.9715100000000003  1.0977300000000001 16.1005000000000003
  9.5066000000000006  1.0977300000000001 16.1005000000000003
  1.9013199999999999  1.0977300000000001 16.1005000000000003
  4.4364200000000000  1.0977300000000001 16.1005000000000003
  8.2390600000000003  3.2931800000000000 16.1005000000000003
  0.6337739999999999  3.2931800000000000 16.1005000000000003
  3.1688700000000001  3.2931800000000000 16.1005000000000003
  5.7039600000000004  3.2931800000000000 16.1005000000000003
  9.5066000000000006  5.4886400000000002 16.1005000000000003
  1.9013199999999999  5.4886400000000002 16.1005000000000003
  4.4364200000000000  5.4886400000000002 16.1005000000000003
  6.9715100000000003  5.4886400000000002 16.1005000000000003
  0.6337739999999999  7.6840999999999999 16.1005000000000003
  3.1688700000000001  7.6840999999999999 16.1005000000000003
  5.7039600000000004  7.6840999999999999 16.1005000000000003
  8.2390600000000003  7.6840999999999999 16.1005000000000003
  5.6879600000000003  1.8308800000000001 18.2076999999999991
  8.1923700000000004  1.7234799999999999 18.1558999999999990
  0.6054730000000000  1.8554700000000000 18.1948000000000008
  3.0834700000000002  1.8380300000000001 18.1454999999999984
  6.8826099999999997  3.9984299999999999 18.2013999999999996
  9.5942299999999996  4.0819299999999998 18.2591000000000001
  2.0181100000000001  4.0294900000000000 18.3113999999999990
  4.4605100000000002  4.0907900000000001 17.9670999999999985
  8.1860599999999994  6.2032600000000002 18.1650999999999989
  0.6770450000000000  6.2606299999999999 18.1575999999999986
  3.0511499999999998  6.2387600000000001 18.1262000000000008
  5.6293899999999999  6.3136000000000001 18.0135000000000005
  9.3603400000000008  8.2380399999999998 18.2994999999999983
  1.7874900000000000  8.5116599999999991 18.1264000000000003
  4.4215700000000000  8.4641599999999997 18.0883000000000003
  6.9398799999999996  8.4125499999999995 18.2430999999999983
  5.7692699999999997  0.3777410000000000 20.1972999999999985
  8.3923900000000007  0.3314670000000000 20.3984999999999985
  0.7030690000000001  0.3702850000000000 20.2469999999999999
  3.1418400000000002  0.4228830000000000 20.0842999999999989
  6.9752400000000003  2.4590200000000002 20.1859000000000002
  9.3980300000000003  2.4685199999999998 20.0605000000000011
  2.0700500000000002  2.6553499999999999 20.3592000000000013
  4.5378100000000003  2.4426299999999999 20.0988000000000007
  8.1564499999999995  4.7453000000000003 20.1068999999999996
  0.5913140000000000  4.7237400000000003 20.4293000000000013
  3.2335199999999999  4.8953199999999999 20.1673000000000009
  5.6778100000000000  4.6670699999999998 20.0958000000000006
  9.3855699999999995  6.9355700000000002 20.4331999999999994
  2.0263800000000001  7.0143500000000003 20.1574999999999989
  4.5114299999999998  7.0736999999999997 20.2140999999999984
  6.9147999999999996  6.8985099999999999 20.2040000000000006
  3.8374100000000002  8.0435499999999998 24.4162999999999997
  3.0205600000000001  8.3879300000000008 24.0363000000000007
  4.0288199999999996  7.2495799999999999 23.9022000000000006
  8.7023299999999999  0.9781120000000000  0.1474450000000000
  7.7819900000000004  1.1955199999999999 30.0176000000000016
  8.5770300000000006  0.0064073200000000  0.1679670000000000
  2.0661900000000002  2.4688200000000000 22.5988000000000007
 -0.2538200000000000  8.0865299999999998 23.0977999999999994
  1.6480600000000001  3.2716099999999999 22.8517000000000010
  2.2009500000000002  8.2111599999999996 28.5013000000000005
  1.3778800000000000  8.3435500000000005 28.0508999999999986
  1.9437899999999999  8.5249299999999995 29.4649999999999999
  5.1932999999999998  3.5723199999999999  0.0688515000000000
  5.0037000000000003  2.8930300000000000  0.7461520000000000
  5.4745699999999999  3.0800200000000002 29.3782999999999994
  8.7972400000000004  3.6419999999999999  6.7610500000000000
  0.7239050000000000  1.9482800000000000  1.7124100000000000
  9.0895700000000001  3.8485499999999999  7.6314399999999996
  0.0619019000000000  8.3422999999999998 26.4741999999999997
  1.4741400000000000  6.0417399999999999  7.0842999999999998
  9.3126499999999997  7.9119299999999999 26.5995999999999988
 10.0474999999999994  2.4462100000000002  1.8378000000000001
  6.3796200000000001  0.3915470000000000 23.6712999999999987
  9.4430200000000006  1.8226700000000000  1.3143899999999999
  4.1472199999999999  7.1063299999999998 27.0447999999999986
  3.3525700000000001  7.3399500000000000 27.6756999999999991
  9.6885800000000000  6.6639999999999997  0.6817680000000000
  8.9937900000000006  7.2206900000000003  0.3960080000000000
  8.2873000000000001  6.6602300000000003  0.1122720000000000
  9.4800199999999997  0.7989290000000000  6.4256300000000000
  6.4897000000000000  1.0698600000000000 24.3719999999999999
  6.4522700000000004  0.4447000000000000 25.1655000000000015
  4.8396100000000004  5.6427199999999997 22.3616999999999990
  5.2590000000000003  4.8744600000000000  3.6147999999999998
  5.3919899999999998  4.6396300000000004  4.5911299999999997
  4.3321500000000004  5.2494100000000001  3.6313000000000000
  2.1280600000000001  5.6699500000000000  7.8009599999999999
  9.4602000000000004  3.9289100000000001  6.1698100000000000
  2.9492400000000001  6.2381599999999997  7.6651899999999999
  2.3725600000000000  6.2906700000000004  3.5212400000000001
  2.7801399999999998  6.9500099999999998  2.9440800000000000
  1.6788099999999999  5.8588500000000003  2.9116700000000000
  9.4641999999999999  7.3504899999999997 22.5513000000000012
 10.1225000000000005  0.4949810000000000 26.7271000000000001
  8.9066799999999997  6.9086900000000000 23.2351999999999990
  4.8071500000000000  2.4867100000000000  2.4437500000000001
  5.0213500000000000  3.2655300000000000  2.9407500000000000
  3.7026900000000000  1.2506500000000000  6.0235099999999999
  4.5888499999999999  1.6255400000000000  5.8651000000000000
  3.1158399999999999  1.9656600000000000  6.1934300000000002
  1.9147300000000000  1.4714900000000000  0.4775790000000000
  2.5786099999999998  1.1517400000000000 -0.0868291000000000
  1.3142300000000000  1.7714600000000000 29.8919999999999995
  7.3477600000000001  5.9136699999999998 24.3003999999999998
  6.4772299999999996  6.0538800000000004 23.7467000000000006
  7.6146700000000003  4.9565599999999996 24.1265000000000001
  4.0311599999999999  2.1289500000000001  2.9275199999999999
  8.6270399999999992  0.9743610000000000  5.9077099999999998
  8.4944400000000009  1.9318200000000001  6.0857400000000004
  4.0591299999999997  3.6720600000000001 25.4143000000000008
  4.1657799999999998  3.0375700000000001 24.6067999999999998
  4.8617999999999997  2.4486699999999999 24.8125999999999998
  3.9292699999999998  7.3841000000000001 26.1326999999999998
  7.8971799999999996  2.8999700000000002 26.5383999999999993
  8.4131199999999993  2.5045700000000002 25.8516000000000012
  8.5356699999999996  3.4596200000000001 26.9875000000000007
  4.8696599999999997  5.8040799999999999 23.3210000000000015
  4.6185099999999997  4.9361100000000002 23.7201999999999984
  2.9542600000000001  2.1349700000000000 27.8695999999999984
  3.2545799999999998  1.2067399999999999 27.5805000000000007
  7.6512000000000002  6.4623499999999998 26.0991999999999997
  8.1018299999999996  6.7309900000000003 26.9187000000000012
  8.4957700000000003  4.9262100000000002  4.5789499999999999
  7.5033700000000003  7.1253500000000001 27.5710000000000015
  8.6227599999999995  5.9146700000000001  4.8069899999999999
  1.9788500000000000  2.0665100000000001 27.9083000000000006
  7.9030800000000001  6.1610399999999998  5.3605900000000002
  3.5880899999999998  8.2429799999999993  1.4627500000000000
  2.9143400000000002  0.0530627000000000  1.8457399999999999
  4.4648099999999999  8.2801700000000000  2.0141100000000001
  5.9983899999999997  1.7472700000000001 28.1674000000000007
  6.0259099999999997  0.7494600000000000 28.1629000000000005
  5.3926999999999996  7.3051300000000001 27.9791999999999987
  6.1971800000000004  7.6659499999999996 28.4863000000000000
  7.4460699999999997  8.0212599999999998  6.7268200000000000
  6.9051900000000002  7.2012700000000001  6.6220699999999999
  6.6635999999999997  2.0114800000000002 27.5293999999999990
  7.0587400000000002  6.7299400000000000  7.5042700000000000
  6.2269500000000004  1.0222100000000001  4.2848699999999997
  7.0889699999999998  1.4363400000000000  4.5115400000000001
  6.0381600000000004  1.4364200000000000  3.4068299999999998
  3.7175300000000000  8.2447800000000004  6.6263500000000004
  4.0114400000000003  7.3979299999999997  6.9810800000000004
  0.7496699999999999  4.9209699999999996 24.2955000000000005
  4.9779200000000001  7.3900399999999999  6.9032600000000004
  0.3765880000000000  4.3121600000000004 23.6085999999999991
 -0.0216968000000000  4.9512900000000002 22.9955999999999996
  5.7170600000000000  6.6420899999999996  3.6030000000000002
  1.3438500000000000  5.9248700000000003 25.8263999999999996
  1.2798600000000000  6.8703099999999999 26.0598999999999990
  2.2508699999999999  5.5582900000000004 26.0283000000000015
  3.4781000000000000  4.5065700000000000 26.6315999999999988
  4.1578200000000001  5.1217100000000002 26.9159000000000006
  3.7260800000000001  6.4679900000000004  0.4876940000000000
  3.3693000000000000  5.8831300000000004 29.9337000000000018
  0.7644370000000000  0.3376940000000000 24.3826999999999998
  4.0017100000000001  5.1973900000000004 -0.1937880000000000
  1.2892399999999999  0.0507951000000000 23.5694000000000017
  3.4738500000000001  3.7492600000000000 27.3408000000000015
  1.3317699999999999  0.8439530000000000 23.0546000000000006
  6.2907900000000003  6.3498500000000000  0.5290180000000000
  6.2965999999999998  6.5408400000000002  1.4915099999999999
  5.8478800000000000  5.4800100000000000  0.3381200000000000
  9.0955999999999992  1.7672099999999999 24.5566999999999993
  6.1494600000000004  7.1081700000000003 29.3754999999999988
  2.9786899999999998  0.9122020000000000  4.3676599999999999
  2.5996299999999999  1.1521999999999999  3.4845000000000002
  9.0083000000000002  3.1797300000000002  3.2700999999999998
  1.6761699999999999  1.4112000000000000  3.6491500000000001
  8.2549200000000003  3.4176000000000002  3.8266200000000001
  8.3416999999999994  1.2594900000000000 24.2982000000000014
  7.6518400000000000  3.7888000000000002  3.1499700000000002
  9.8282600000000002  4.6154099999999998 27.6403999999999996
  0.3122280000000000  4.9649299999999998 26.8532000000000011
  9.1681600000000003  5.2770999999999999 27.7413999999999987
  2.9505599999999998  2.5817500000000000 23.1012999999999984
  1.9432600000000000  3.9072700000000000  6.9677800000000003
  1.6606099999999999  3.0568900000000001  6.4326699999999999
  1.3692700000000000  6.6946099999999999  4.8459800000000000
  1.5406100000000000  2.4499599999999999  7.1847700000000003
  0.8972140000000000  6.7044699999999997  5.7154800000000003
 -0.0146446000000000  6.5384799999999998  5.5079000000000002
  5.9501400000000002  7.4890999999999996  3.1245599999999998
  6.0147300000000001  8.1922499999999996  3.8286500000000001
  9.3273499999999991  2.5133600000000000 24.0151000000000003
  0.9332900000000000  0.3764620000000000  6.8527100000000001
  1.1411300000000000  0.1535300000000000  7.7919999999999998
  1.1364700000000001  8.3354900000000001  6.3186799999999996
  6.1368400000000003  4.1815300000000004  6.2224500000000003
  7.0900900000000000  4.0284000000000004  6.4604999999999997
  5.8581599999999998  4.7370599999999996  6.9879400000000000
  0.2911950000000000  2.0631900000000001 28.3157999999999994
 10.1517999999999997  3.0677599999999998 28.2902999999999984
  9.8045700000000000  1.7140599999999999 28.9679000000000002
 10.0008999999999997  8.5826100000000007  3.6693300000000000
  9.5634999999999994  7.7162199999999999  3.7593700000000001
  9.3780400000000004  0.4022180000000000  4.1847799999999999
  0.9500250000000000  5.0278700000000001  1.4507000000000001
  1.7208600000000001  5.1710099999999999  0.8348100000000001
  0.6925950000000000  4.0715599999999998  1.4814300000000000
