Cu  O  H  O  H  O  H  O  H  O  H  O  H  O  H  O  H  O  H  O  H  O  H  O  H  O  H  O  H  O  H  O  H  O  H  O  H  O  H  O  H  O  H  O  H  O  H  O  H  O  H  O  H  O  H  O  H  O  H  O  H  O  H  O  H  O  H  O  H  O  H  O  H  O  H  O  H  O  H  O  H  O  H  O  H  O  H  O  H  O  H  O  H  O  H  O  H  O  H  O  H 
 1.0000000000000000
    10.1403771778044529    0.0000000000000000    0.0000000000000000
     0.0000000000000000    8.7818242399346058    0.0000000000000000
     0.0000000000000000    0.0000000000000000   30.1311271579000000
 Cu  O   H   O   H   O   H   O   H   O   H   O   H   O   H   O   H   O   H   O   H   O   H   O   H   O   H   O   H   O   H   O   H   O   H   O   H   O   H   O   H   O   H   O   H   O   H   O   H   O   H   O   H   O   H   O   H   O   H   O   H   O   H   O   H   O   H   O   H   O   H   O   H   O   H   O   H   O   H   O   H   O   H   O   H   O   H   O   H   O   H   O   H   O   H   O   H   O   H   O   H  
  96   1   2   1   2   1   2   1   2   1   2   1   2   1   2   1   2   1   2   1   2   1   2   1   2   1   2   1   2   1   2   1   1   1   2   1   2   1   3   1   2   1   2   1   2   1   1   1   2   1   2   1   2   1   2   1   2   1   1   1   2   1   3   1   2   1   2   1   2   1   2   1   2   1   2   1   2   1   2   1   2   1   2   1   4   1   2   1   1   1   2   1   2   1   2   1   2   1   2   1   2
Cartesian
  6.9709500000000002  1.0552100000000000  9.7308800000000009
  9.5122800000000005  1.1000099999999999  9.9511299999999991
  1.8324300000000000  1.1240100000000000  9.6956699999999998
  4.3067599999999997  1.1220399999999999  9.9795999999999996
  8.1635500000000008  3.1954500000000001  9.7222000000000008
  0.5949870000000000  3.1300699999999999  9.9266400000000008
  3.1730200000000002  3.3008199999999999  9.8645499999999995
  5.6899199999999999  3.3597600000000001  9.8498800000000006
  9.5571500000000000  5.1883800000000004  9.7888500000000001
  1.7996000000000001  5.3979999999999997  9.6345399999999994
  4.4674100000000001  5.4126799999999999  9.9965299999999999
  7.1206699999999996  5.4349800000000004  9.8891600000000004
  0.4820760000000000  7.6464699999999999  9.8659999999999997
  3.1721699999999999  7.4907899999999996  9.9508299999999998
  5.6705699999999997  7.4251199999999997  9.9473900000000004
  8.2334599999999991  7.5946499999999997  9.8654700000000002
  5.7204600000000001  1.6824800000000000 11.9885000000000002
  8.2028099999999995  1.7830800000000000 11.9420999999999999
  0.6216370000000000  1.7398700000000000 11.8984000000000005
  3.1444200000000002  1.8084400000000000 11.9878999999999998
  6.9380899999999999  3.8106700000000000 11.8870000000000005
  9.5671700000000008  3.9720800000000001 11.8350000000000009
  1.8916100000000000  4.0109899999999996 11.9026999999999994
  4.5075900000000004  3.9970900000000000 11.9998000000000005
  8.2117799999999992  6.1634500000000001 11.8859999999999992
  0.6461320000000000  6.1011499999999996 11.8245000000000005
  3.1341899999999998  6.1450500000000003 11.8287999999999993
  5.6888899999999998  6.1887600000000003 12.0541999999999998
  9.4470899999999993  8.4475499999999997 12.0144000000000002
  1.7950299999999999  8.3663799999999995 11.8889999999999993
  4.4026399999999999  8.4218299999999999 11.9974000000000007
  6.9036299999999997  8.3113299999999999 11.9966000000000008
  5.7039600000000004  0.3659090000000000 14.0305999999999997
  8.2390600000000003  0.3659090000000000 14.0305999999999997
  0.6337739999999999  0.3659090000000000 14.0305999999999997
  3.1688700000000001  0.3659090000000000 14.0305999999999997
  6.9715100000000003  2.5613700000000001 14.0305999999999997
  9.5066000000000006  2.5613700000000001 14.0305999999999997
  1.9013199999999999  2.5613700000000001 14.0305999999999997
  4.4364200000000000  2.5613700000000001 14.0305999999999997
  8.2390600000000003  4.7568200000000003 14.0305999999999997
  0.6337739999999999  4.7568200000000003 14.0305999999999997
  3.1688700000000001  4.7568200000000003 14.0305999999999997
  5.7039600000000004  4.7568200000000003 14.0305999999999997
  9.5066000000000006  6.9522800000000000 14.0305999999999997
  1.9013199999999999  6.9522800000000000 14.0305999999999997
  4.4364200000000000  6.9522800000000000 14.0305999999999997
  6.9715100000000003  6.9522800000000000 14.0305999999999997
  6.9715100000000003  1.0977300000000001 16.1005000000000003
  9.5066000000000006  1.0977300000000001 16.1005000000000003
  1.9013199999999999  1.0977300000000001 16.1005000000000003
  4.4364200000000000  1.0977300000000001 16.1005000000000003
  8.2390600000000003  3.2931800000000000 16.1005000000000003
  0.6337739999999999  3.2931800000000000 16.1005000000000003
  3.1688700000000001  3.2931800000000000 16.1005000000000003
  5.7039600000000004  3.2931800000000000 16.1005000000000003
  9.5066000000000006  5.4886400000000002 16.1005000000000003
  1.9013199999999999  5.4886400000000002 16.1005000000000003
  4.4364200000000000  5.4886400000000002 16.1005000000000003
  6.9715100000000003  5.4886400000000002 16.1005000000000003
  0.6337739999999999  7.6840999999999999 16.1005000000000003
  3.1688700000000001  7.6840999999999999 16.1005000000000003
  5.7039600000000004  7.6840999999999999 16.1005000000000003
  8.2390600000000003  7.6840999999999999 16.1005000000000003
  5.6853899999999999  1.9474899999999999 18.2502999999999993
  8.1229999999999993  1.8226300000000000 18.2939000000000007
  0.4177250000000000  1.9047600000000000 18.1161999999999992
  3.0297999999999998  1.8230700000000000 18.1658000000000008
  6.9900500000000001  4.0222499999999997 18.4290999999999983
  9.3298000000000005  4.0354900000000002 18.2056000000000004
  1.8288400000000000  4.0170399999999997 18.1092000000000013
  4.4752299999999998  3.9171200000000002 18.2550999999999988
  8.2794799999999995  6.1983600000000001 18.2297000000000011
  0.6033620000000000  6.1763199999999996 18.1848999999999990
  3.0858300000000001  6.2085200000000000 18.1979000000000006
  5.7068500000000002  6.0514200000000002 18.2253000000000007
  9.5037800000000008  8.4518299999999993 18.1407999999999987
  1.8219700000000001  8.4043500000000009 18.2584000000000017
  4.3868299999999998  8.4534500000000001 18.1655000000000015
  6.8108000000000004  8.2881599999999995 18.1690000000000005
  5.5863899999999997  0.3460540000000000 20.2209000000000003
  8.2475000000000005  0.2525380000000000 20.3550000000000004
  0.4860500000000000  0.1863860000000000 20.3481999999999985
  3.0308700000000002  0.3001580000000000 20.4009000000000000
  6.9304100000000002  2.6089699999999998 20.4225999999999992
  9.4870199999999993  2.4712499999999999 20.2261999999999986
  1.7578199999999999  2.4921199999999999 20.2025000000000006
  4.2567100000000000  2.4730799999999999 20.2738000000000014
  8.2973599999999994  4.7952899999999996 20.3965999999999994
  0.6258800000000000  4.5698499999999997 20.1050000000000004
  3.0630299999999999  4.8132400000000004 20.1129999999999995
  5.6276999999999999  4.8136999999999999 20.8832999999999984
  9.5975000000000001  6.9304699999999997 20.2515999999999998
  1.8496999999999999  6.9274699999999996 20.2604000000000006
  4.4800000000000004  7.0221499999999999 20.1504000000000012
  6.8706399999999999  6.9393200000000004 20.2346000000000004
  5.6968600000000000  5.5561400000000001 22.7712000000000003
  4.8417500000000002  5.5989399999999998 23.2951000000000015
  6.3131599999999999  5.0658099999999999 23.3584999999999994
  6.4621300000000002  1.7193900000000000 28.4375000000000000
  6.0258799999999999  2.5258500000000002 28.0079999999999991
  6.1077300000000001  1.7709100000000000 29.3674999999999997
  8.7156400000000005  8.0571599999999997 23.9714999999999989
  6.7796900000000004  1.4852000000000001 22.3724999999999987
  8.1054399999999998  8.7452400000000008 23.5616999999999983
  0.4595360000000000  6.3875700000000002 28.8903999999999996
  0.5255970000000000  6.1354600000000001 27.9009999999999998
  1.2046900000000000  6.9871400000000001 28.9995000000000012
  7.5825699999999996  4.5564999999999998  3.7375300000000000
  6.7179099999999998  4.9942799999999998  3.8085200000000001
  8.1534300000000002  4.8425799999999999  4.4133699999999996
  1.7899900000000000  1.3229700000000000  7.5108600000000001
  4.8108000000000004  1.9055800000000001  1.1324300000000000
  2.7231399999999999  1.6241900000000000  7.1187699999999996
  4.4666100000000002  0.3401940000000000 24.1476000000000006
 -0.1788720000000000  3.4047999999999998  7.4371400000000003
  4.6379599999999996  8.5818399999999997 25.0246999999999993
  5.7257100000000003  2.1725699999999999  0.9645629999999999
 10.1571999999999996  0.7541690000000000 26.0731999999999999
  5.7155300000000002  3.2143799999999998  0.9261170000000000
  2.0973700000000002  8.7205700000000004 22.9205000000000005
  2.9761199999999999  0.2143130000000000 23.2770000000000010
  5.3631300000000000  3.8587899999999999 26.3490000000000002
  6.2098300000000002  4.1880100000000002 26.7514000000000003
  6.8320200000000000  4.2416200000000002 26.0248999999999988
  5.4417099999999996  0.7497200000000001  7.3912199999999997
  9.9312199999999997  0.8051310000000000 27.0344000000000015
  8.9465599999999998  0.5750080000000000 27.0562000000000005
  3.8100299999999998  6.3125200000000001 25.1541999999999994
  2.0988099999999998  2.7724199999999999  3.0685799999999999
  1.5301499999999999  3.5793200000000001  3.2326199999999998
  2.0684499999999999  2.6288800000000001  2.1406399999999999
  0.1905060000000000  3.2396900000000000  6.5337699999999996
  1.1009100000000001  1.9902599999999999  7.1439700000000004
  9.4669200000000000  2.9199700000000002  6.1119599999999998
  0.4736270000000000  5.0192800000000002  3.4711699999999999
  9.8686799999999995  5.5411099999999998  3.0234000000000001
  0.2502450000000000  5.1015499999999996  4.3957100000000002
  6.9218200000000003  0.9442050000000000 23.2039000000000009
  4.1434699999999998  1.1870400000000001 24.4954000000000001
  6.0743600000000004  0.8078460000000000 23.7763999999999989
  7.7364800000000002  2.7281100000000000  6.1489700000000003
  7.0781400000000003  3.4753099999999999  6.3666200000000002
  5.7958100000000004  7.1105900000000002  5.2704399999999998
  5.2911099999999998  6.8063000000000002  4.5177800000000001
  6.6168500000000003  7.4404700000000004  4.8767500000000004
  7.0229100000000004  1.8722099999999999  3.2598799999999999
  6.5959800000000000  1.9646500000000000  2.4130400000000001
  7.2509199999999998  2.8203999999999998  3.5553699999999999
  4.0280199999999997  7.6554700000000002 26.1982999999999997
  3.2171599999999998  7.9697899999999997 26.7265000000000015
  4.5301799999999997  7.1670999999999996 26.9144000000000005
  7.3077600000000000  1.9330900000000000  6.5587900000000001
  6.4429499999999997  0.6351390000000000  7.4172000000000002
  6.5989300000000002  8.5194700000000001  7.0353599999999998
  9.7468199999999996  0.5542080000000000 24.2813000000000017
  0.2803620000000000  1.1857700000000000 24.4437999999999995
 10.2673000000000005  1.9836300000000000 23.8901000000000003
  1.3920800000000000  0.5250240000000000 23.3691999999999993
  3.5876500000000000  2.8571900000000001 25.2373000000000012
  3.4366500000000002  3.6850299999999998 24.8035999999999994
  2.9376300000000000  2.7375300000000000 25.9548999999999985
  3.5957599999999998  5.5233499999999998 24.4923000000000002
  2.6809099999999999  5.8842499999999998 24.1367000000000012
  5.4443400000000004  6.5565400000000000 28.0106000000000002
  6.2323899999999997  7.0784200000000004 27.9731999999999985
  9.2478999999999996  6.7592299999999996 29.7364999999999995
  8.3362200000000009  6.8922900000000000 29.9951000000000008
  5.2546099999999996  2.2815500000000002  3.9173399999999998
  8.1304200000000009  5.9887699999999997  0.1177230000000000
  4.5891299999999999  3.0013600000000000  4.1718500000000001
  5.6547099999999997  5.6309600000000000 27.7530999999999999
  3.7553899999999998  2.6723800000000000  3.7811599999999999
  7.5872999999999999  4.5381099999999996  1.0413900000000000
  7.6305600000000000  4.7432400000000001  1.9674400000000001
  8.0241399999999992  3.6734300000000002  0.9249960000000000
  0.7828700000000000  0.1266280000000000  0.8586110000000000
  1.7268699999999999  0.4448650000000000  1.0853999999999999
 10.0014000000000003  7.6694699999999996  2.0063700000000000
  9.1819000000000006  7.2781599999999997  2.2158000000000002
  2.8367800000000001  6.1370800000000001  7.4269499999999997
  2.4195799999999998  5.2558900000000000  7.7340999999999998
  0.1971250000000000  0.9278520000000000  0.7472900000000000
  1.9162200000000000  4.9737600000000004  7.0162899999999997
  2.2997200000000002  0.2348200000000000  4.0523300000000004
  1.4488900000000000  8.7123200000000001  4.5090199999999996
  2.1589499999999999  1.1693800000000001  3.8544900000000002
  9.8104600000000008  5.1566599999999996  6.2107200000000002
  9.1576900000000006  5.7372899999999998  5.8151000000000002
  8.6026900000000008  4.0243399999999996 24.0943000000000005
  9.5545600000000004  6.5846499999999999  5.6824000000000003
  7.8437500000000000  3.5509800000000000 24.4655999999999985
  7.6997600000000004  2.6952600000000002 23.9797000000000011
  0.8405710000000000  4.0419299999999998 23.6862999999999992
  1.1175100000000000  6.5781400000000003 23.7393999999999998
  1.6357100000000000  7.4588500000000000 23.3134000000000015
  0.7859380000000000  6.1125800000000003 22.9280000000000008
  0.6100650000000000  5.4085599999999996 26.2528000000000006
  0.8873890000000000  5.8898400000000004 25.4424999999999990
  4.3994499999999999  5.9281600000000001 29.8809000000000005
  3.8011800000000000  5.9585800000000004  0.5462880000000000
  8.0054700000000008  6.4962099999999996 24.9603000000000002
  3.1435200000000001  5.2300399999999998  0.4430170000000000
  8.1105800000000006  5.9968599999999999 25.8019999999999996
  9.8465100000000003  5.2728900000000003 26.0955000000000013
  8.1099099999999993  6.7511799999999997 26.3778000000000006
  1.7506900000000001  3.9702400000000000 -0.0085103700000000
  1.6354200000000001  3.3573100000000000 29.3143999999999991
  1.2519499999999999  4.7532100000000002 29.8634999999999984
  7.5196500000000004  8.3363499999999995 27.8387999999999991
  8.6865100000000002  7.2524400000000000  1.4254000000000000
  8.4409100000000006  1.1399200000000000  0.5747390000000000
  8.7009799999999995  1.9408300000000001  0.0845561000000000
  7.5740200000000000  0.2366650000000000  3.8891200000000001
  8.2249199999999991  1.7769800000000000 29.4217000000000013
  7.9631999999999996  8.2892799999999998  4.3707200000000004
  7.8672700000000004  7.8754600000000003 28.6580000000000013
  8.6119800000000009  7.8878800000000000  3.6678099999999998
  1.5088800000000000  2.8939699999999999 27.3997999999999990
  0.8817090000000000  2.1766999999999999 27.2192000000000007
  1.1210500000000001  3.5829100000000000 26.8624000000000009
  9.1398299999999999  7.5088400000000002 23.2979999999999983
  4.5335900000000002  2.8913400000000000  5.9528999999999996
  4.0215699999999996  2.6099100000000002  6.7822199999999997
  6.1251600000000002  5.6321000000000003  6.3382800000000001
  3.8310100000000000  3.4851999999999999  7.2512900000000000
  6.0014200000000004  4.8365700000000000  6.8193700000000002
  6.2323300000000001  5.1031500000000003  7.7122599999999997
  0.0673209000000000  3.6562999999999999 23.2086000000000006
  0.1559700000000000  3.6389600000000000 22.2677000000000014
  6.8586700000000000  0.3003840000000000 27.9113000000000007
  3.4625900000000001  7.5582599999999998  6.7499200000000004
  4.1598699999999997  7.5717200000000000  6.0031400000000001
  2.7366500000000000  8.1630699999999994  6.4534300000000000
  4.8322700000000003  5.5349599999999999  3.0860699999999999
  4.4190399999999999  5.7044699999999997  2.2321800000000001
  4.5383100000000001  4.6781400000000000  3.3467199999999999
  2.1305000000000001  8.4873100000000008 27.9286999999999992
  1.2393600000000000  0.0086855100000000 27.7462000000000018
  2.4090400000000001  0.3329790000000000 28.6046000000000014
  0.0013122200000000  8.3501700000000003  5.6211599999999997
  9.2381499999999992  8.5895399999999995  5.2857200000000004
 10.3146000000000004  8.7496700000000001  6.4762399999999998
  3.2955399999999999  0.0865410000000000  1.7144100000000000
  3.5024999999999999  8.0158500000000004  1.3062100000000001
  3.0691500000000000  8.8274000000000008  2.6567400000000001
