Cu O  H  O  H  O  H  O  H  O  H  O  H  O  H  O  H  O  H  O  H  O  H  O  H  O  H  O  H  O  H  O  H  O  H  O  H  O  H  O  H  O  H  O  H  O  H  O  H  O  H  O  H  O  H  O  H  O  H  O  H  O  H  O  H  O  H  O  H  O  H  O  H  O  H  O  H  O  H  O  H  O  H  O  H  O  H  O  H  O  H  O  H  O  H  O  H  O  H  O  H 
 1.0000000000000000
    10.1403771778044529    0.0000000000000000    0.0000000000000000
     0.0000000000000000    8.7818242399346058    0.0000000000000000
     0.0000000000000000    0.0000000000000000   30.1311271579000000
 Cu  O   H   O   H   O   H   O   H   O   H   O   H   O   H   O   H   O   H   O   H   O   H   O   H   O   H   O   H   O   H   O   H   O   H   O   H   O   H   O   H   O   H   O   H   O   H   O   H   O   H   O   H   O   H   O   H   O   H   O   H   O   H   O   H   O   H   O   H   O   H   O   H   O   H   O   H   O   H   O   H   O   H   O   H   O   H   O   H   O   H   O   H   O   H   O   H   O   H   O   H  
  96   1   2   1   2   1   2   1   2   1   2   1   2   1   2   1   2   1   2   1   2   1   2   1   2   1   2   1   2   1   2   1   1   1   2   1   2   1   3   1   2   1   2   1   2   1   1   1   2   1   2   1   2   1   2   1   2   1   1   1   2   1   3   1   2   1   2   1   2   1   2   1   2   1   2   1   2   1   2   1   2   1   2   1   4   1   2   1   1   1   2   1   2   1   2   1   2   1   2   1   2
Cartesian
  7.0677199999999996  0.9475840000000000  9.8072900000000001
  9.4661500000000007  1.1197500000000000  9.9349900000000009
  1.9194300000000000  1.1923299999999999  9.8404900000000008
  4.4096700000000002  1.0550500000000000 10.0361999999999991
  8.3234700000000004  3.2889400000000002 10.0515000000000008
  0.6803550000000000  3.3246899999999999  9.9952799999999993
  3.1383899999999998  3.3254700000000001  9.8570899999999995
  5.7162499999999996  3.1952699999999998  9.9910200000000007
  9.5674799999999998  5.5432499999999996  9.8342299999999998
  1.9648300000000001  5.5381200000000002  9.9439600000000006
  4.5891599999999997  5.5665899999999997  9.7100200000000001
  7.0351100000000004  5.3388099999999996  9.8475300000000008
  0.6750210000000000  7.7230499999999997  9.8725400000000008
  3.2774500000000000  7.6996099999999998  9.8959899999999994
  5.7347099999999998  7.6143599999999996  9.8989499999999992
  8.4614799999999999  7.6807600000000003  9.8166700000000002
  5.7685899999999997  1.8516699999999999 12.1609999999999996
  8.2248300000000008  1.8080900000000000 11.8431999999999995
  0.6281740000000000  1.6953100000000001 11.9535000000000000
  3.1943199999999998  1.7943600000000000 12.0151000000000003
  7.0835400000000002  4.0199499999999997 12.0138999999999996
  9.6616700000000009  4.0509500000000003 12.0580999999999996
  2.0729899999999999  3.9430399999999999 12.0382999999999996
  4.4580399999999996  3.9650900000000000 11.8897999999999993
  8.2176299999999998  6.1440500000000000 11.9099000000000004
  0.8574760000000000  6.1730900000000002 11.9908000000000001
  3.1923800000000000  6.1788999999999996 11.9765999999999995
  5.7282900000000003  6.0054900000000000 11.9411000000000005
  9.5732999999999997  8.3446999999999996 11.9983000000000004
  1.9193600000000000  8.4435000000000002 11.9581000000000000
  4.5130800000000004  8.3910900000000002 12.0099999999999998
  6.9631699999999999  8.3615600000000008 11.7708999999999993
  5.7039600000000004  0.3659090000000000 14.0305999999999997
  8.2390600000000003  0.3659090000000000 14.0305999999999997
  0.6337739999999999  0.3659090000000000 14.0305999999999997
  3.1688700000000001  0.3659090000000000 14.0305999999999997
  6.9715100000000003  2.5613700000000001 14.0305999999999997
  9.5066000000000006  2.5613700000000001 14.0305999999999997
  1.9013199999999999  2.5613700000000001 14.0305999999999997
  4.4364200000000000  2.5613700000000001 14.0305999999999997
  8.2390600000000003  4.7568200000000003 14.0305999999999997
  0.6337739999999999  4.7568200000000003 14.0305999999999997
  3.1688700000000001  4.7568200000000003 14.0305999999999997
  5.7039600000000004  4.7568200000000003 14.0305999999999997
  9.5066000000000006  6.9522800000000000 14.0305999999999997
  1.9013199999999999  6.9522800000000000 14.0305999999999997
  4.4364200000000000  6.9522800000000000 14.0305999999999997
  6.9715100000000003  6.9522800000000000 14.0305999999999997
  6.9715100000000003  1.0977300000000001 16.1005000000000003
  9.5066000000000006  1.0977300000000001 16.1005000000000003
  1.9013199999999999  1.0977300000000001 16.1005000000000003
  4.4364200000000000  1.0977300000000001 16.1005000000000003
  8.2390600000000003  3.2931800000000000 16.1005000000000003
  0.6337739999999999  3.2931800000000000 16.1005000000000003
  3.1688700000000001  3.2931800000000000 16.1005000000000003
  5.7039600000000004  3.2931800000000000 16.1005000000000003
  9.5066000000000006  5.4886400000000002 16.1005000000000003
  1.9013199999999999  5.4886400000000002 16.1005000000000003
  4.4364200000000000  5.4886400000000002 16.1005000000000003
  6.9715100000000003  5.4886400000000002 16.1005000000000003
  0.6337739999999999  7.6840999999999999 16.1005000000000003
  3.1688700000000001  7.6840999999999999 16.1005000000000003
  5.7039600000000004  7.6840999999999999 16.1005000000000003
  8.2390600000000003  7.6840999999999999 16.1005000000000003
  5.7027200000000002  1.7878700000000001 18.1854000000000013
  8.2101699999999997  1.7053199999999999 18.1414000000000009
  0.6453830000000000  1.7323700000000000 18.2137999999999991
  3.2190500000000002  1.7961100000000001 18.1198000000000015
  7.0600100000000001  3.9438200000000001 18.3033999999999999
  9.6056899999999992  4.0268899999999999 18.2246999999999986
  1.8584099999999999  3.8424800000000001 18.2277999999999984
  4.4481700000000002  3.9630299999999998 18.0904999999999987
  8.2791999999999994  6.1499100000000002 18.1940999999999988
  0.6473900000000000  6.1825400000000004 18.2180000000000000
  3.1060500000000002  6.1868999999999996 18.1376999999999988
  5.6920200000000003  6.1873800000000001 18.0684000000000005
  9.7151999999999994  8.2757799999999992 18.2503999999999991
  1.9703299999999999  8.3688400000000005 18.2438000000000002
  4.3682699999999999  8.4781200000000005 18.3081999999999994
  6.9781100000000000  8.3840000000000003 18.1569000000000003
  5.6718099999999998  0.3260210000000000 20.2841999999999985
  8.3033400000000004  0.2912920000000000 20.2589000000000006
  0.7022740000000000  0.2846970000000000 20.1877999999999993
  3.2102100000000000  0.2937250000000000 20.3496999999999986
  6.8520500000000002  2.3395100000000002 20.3870000000000005
  9.5068099999999998  2.4428899999999998 20.1927999999999983
  1.9872500000000000  2.5567899999999999 20.2354999999999983
  4.3991600000000002  2.5082900000000001 20.2733999999999988
  8.3053000000000008  4.6732899999999997 20.4115000000000002
  0.6288540000000000  4.8084899999999999 20.2402000000000015
  3.0378200000000000  4.7711100000000002 20.0742000000000012
  5.7207299999999996  4.4827800000000000 20.1934000000000005
  9.6150400000000005  6.8570300000000000 20.3082999999999991
  2.0181600000000000  6.9187000000000003 20.4467999999999996
  4.4322200000000000  6.8614899999999999 20.0336999999999996
  6.9652500000000002  6.8169800000000000 20.3030000000000008
  3.3599999999999999  4.9976799999999999 24.2290999999999990
  3.3738899999999998  5.2270899999999996 25.1707999999999998
  3.6552799999999999  4.0384399999999996 24.2156999999999982
  6.1085300000000000  6.2658699999999996  2.9457599999999999
  6.3186999999999998  5.6783900000000003  3.7014900000000002
  5.2192499999999997  5.8561699999999997  2.8168500000000001
  6.4702000000000002  6.6582499999999998 26.5575000000000010
  3.9310600000000000  3.7451500000000002  7.5910700000000002
  5.9310000000000000  6.6369100000000003 27.3704999999999998
  3.0878000000000001  8.6280599999999996 25.9119999999999990
  3.6560400000000000  8.3675899999999999 25.2086000000000006
  3.3740299999999999  0.7179430000000000 26.2856999999999985
  4.3836300000000001  1.9274300000000000 27.0451000000000015
  3.8174600000000001  2.6878799999999998 27.2590000000000003
  5.2074499999999997  2.4567899999999998 26.7977999999999987
  6.6144100000000003  3.7375699999999998 26.8408000000000015
  0.5255000000000000  1.0465100000000001 28.5784999999999982
  7.2957299999999998  3.5240900000000002 26.1306000000000012
  0.5899720000000001  3.1259399999999999 26.2244999999999990
  2.2135600000000002  3.3942700000000001  6.0499099999999997
  0.9566450000000000  3.1489199999999999 25.2868999999999993
  1.1839599999999999  0.8993840000000000 27.8684000000000012
  1.6357900000000001  0.2548000000000000 24.5412999999999997
  1.4242400000000000  8.6839700000000004 27.8994000000000000
  1.3584200000000000  6.5786100000000003 22.7880000000000003
  0.5127590000000000  6.1315799999999996 22.9360999999999997
  8.4593299999999996  0.8548170000000000  4.6253000000000002
  7.9034000000000004  1.6413000000000000  4.7234299999999996
  8.4472100000000001  2.4699900000000001  4.6792299999999996
  4.6645000000000003  1.0733400000000000  2.9378500000000001
  0.8843600000000000  0.2098340000000000 23.9416000000000011
  1.1525799999999999  8.3473500000000005 23.2378000000000000
  9.4701799999999992  7.4232500000000003 26.1779000000000011
  5.9128100000000003  4.8796999999999997  5.3010099999999998
  6.6545699999999997  4.2667700000000002  5.2077499999999999
  5.1526899999999998  4.4184200000000002  5.8275100000000002
  1.3449100000000000  3.0263100000000001  5.7514599999999998
  6.5986900000000004  4.7074999999999996 26.8365000000000009
  0.6549770000000000  3.6621700000000001  6.0846999999999998
  9.7003299999999992  1.7849800000000000 29.8523999999999994
  8.9134499999999992  2.2102900000000001 29.4991999999999983
  9.3201199999999993  1.1229400000000000  0.2340160000000000
  3.6922999999999999  3.8951600000000002  6.6235400000000002
  0.5789950000000000  2.2150400000000001 26.5382999999999996
  3.5097000000000000  4.8662000000000001  6.5325899999999999
  3.8282200000000000  5.2179799999999998  2.1562600000000001
  3.5208800000000000  6.0852199999999996  2.4653000000000000
  1.2110600000000000  7.8457800000000004  5.7107700000000001
  0.2674960000000000  7.8955399999999996  5.4493299999999998
  1.3240600000000000 -0.2435460000000000  6.3387799999999999
  2.3669300000000000  2.9827599999999999  3.3028800000000000
  1.7166600000000001  3.0882499999999999  4.0667400000000002
  1.8197900000000000  2.7127400000000002  2.5998700000000001
  8.7108899999999991  5.5464700000000002 23.4469999999999992
  8.9063499999999998  6.3236200000000000 24.0501000000000005
  7.8789199999999999  5.9032600000000004 22.9913999999999987
  3.3874200000000001  4.5474899999999998  2.7241000000000000
  3.9889199999999998  1.0558099999999999  3.6116000000000001
  3.4169200000000002  1.8373600000000001  3.3970699999999998
  5.3926999999999996  7.1977500000000001 25.0772000000000013
  4.8962100000000000  7.5747000000000000 24.2687999999999988
  4.4790599999999996  6.8149400000000000 23.9349999999999987
  1.9592499999999999  5.9923400000000004 23.2266000000000012
 10.0032999999999994  6.7732700000000001  2.5091399999999999
  9.9491099999999992  7.0253699999999997  1.5615399999999999
  0.7407260000000000  7.0628599999999997  2.7695300000000000
  9.8726199999999995  7.1016800000000000 25.4319999999999986
  0.0680264000000000  7.9859400000000003 25.0196000000000005
  0.7309059999999999  3.8145400000000000  0.8480080000000000
  0.2548790000000000  4.1420000000000003  1.6121500000000000
  1.1103600000000000  1.9134500000000001 23.4288999999999987
  1.1348600000000000  2.8748200000000002 23.5533999999999999
  8.6493400000000005  3.4725899999999998  7.4846500000000002
  0.3764770000000000  3.3181600000000002 23.1046000000000014
  9.0676100000000002  3.9199600000000001  6.7572700000000001
  0.2398560000000000  3.0706000000000002  0.4358950000000000
  9.0040399999999998  4.8815600000000003  6.9133399999999998
  5.3237300000000003  1.2753399999999999 29.6975000000000016
  5.0685399999999996  1.4054700000000000 28.7839999999999989
  4.9495699999999996  2.1195200000000001 30.0132000000000012
  7.0707000000000004  7.1189400000000003  6.2411300000000001
  6.5087999999999999  6.3152200000000001  6.1459999999999999
  6.8907600000000002  2.4798900000000001  2.0336500000000002
  6.4625199999999996  1.7205900000000001  2.3705699999999998
  9.2485700000000008  3.2878099999999999 25.5421000000000014
  8.4200199999999992  3.2626100000000000 24.9442999999999984
  7.1427100000000001  7.3175600000000003  7.1422200000000000
  8.5092099999999995  4.1906800000000004 24.5791000000000004
  7.8423299999999996  8.4912600000000005  0.7365330000000000
  7.1955600000000004  0.3787030000000000  1.0728700000000000
  8.1984700000000004  8.1757299999999997  1.5711100000000000
  2.9662099999999998  8.3983600000000003  3.0203199999999999
  2.5683699999999998  7.5334000000000003  3.3122099999999999
  4.2747700000000002  8.4172100000000007  6.4335399999999998
  2.0353300000000001  7.6666999999999996  4.1385399999999999
  4.3617900000000001  0.6210030000000000  6.4138700000000002
  4.4067499999999997  0.8448690000000000  5.4123900000000003
  4.9747100000000000  5.3902700000000001 29.3775000000000013
  8.8025599999999997  7.0021399999999998 28.1879999999999988
  9.5432299999999994  6.7111299999999998 28.7720999999999982
  8.0977899999999998  7.1611200000000004 28.7801000000000009
  4.9332900000000004  2.7983500000000001 23.3256000000000014
  5.3617699999999999  3.2279900000000001 22.5427999999999997
  2.7383999999999999  4.9101499999999998 27.7234000000000016
  2.7334800000000001  3.8977499999999998 27.6096000000000004
  7.9359799999999998  1.5128100000000000 23.9604999999999997
  1.9243800000000000  3.5463300000000002 27.1354000000000006
  8.1484100000000002  0.7312490000000000 23.4540000000000006
  4.6082200000000002  2.0373100000000002 22.8263999999999996
  9.0803499999999993  0.6223870000000000 23.4936000000000007
  7.5461400000000003  2.7736100000000001 29.1751000000000005
  6.7942000000000000  2.1573300000000000 29.2453000000000003
  7.3069499999999996  3.3514400000000002 28.3645999999999994
  0.8277280000000000  6.2847900000000001 29.6518000000000015
  6.9109100000000003  1.6010200000000001  3.2580100000000001
  9.1284700000000001  5.2507999999999999  4.2012200000000002
  8.7309800000000006  4.4131600000000004  3.9987200000000001
  3.2530999999999999  6.4032499999999999  7.6484600000000000
  8.7669300000000003  4.3650500000000001  3.0144099999999998
  3.4594600000000000  6.5096299999999996  6.6986600000000003
  1.7027300000000001  6.5032699999999997 29.2774999999999999
  2.7019500000000001  6.8983100000000004  6.2417199999999999
  4.3962899999999996  7.7565099999999996  1.0496200000000000
  4.6982799999999996  8.6840100000000007  0.7937480000000000
  5.1666400000000001  7.5401999999999996  1.5912999999999999
  7.4038899999999996  6.6760799999999998 26.9012999999999991
  9.1870300000000000  7.3896800000000002  4.0329199999999998
  8.9781700000000004  7.9150400000000003  4.7701599999999997
  6.0875500000000002  1.1453000000000000  7.1943799999999998
  8.2469300000000008  7.5091200000000002  5.3111600000000001
  6.9383699999999999  1.3605799999999999  7.6530399999999998
  7.6740199999999996  1.0311600000000001  7.1377199999999998
  5.5527600000000001  6.1581200000000003 29.1927999999999983
  5.2228300000000001  6.7790999999999997 29.8946000000000005
  0.9061900000000001  5.4078600000000003 30.1982999999999997
  1.9788600000000001  1.2044299999999999  7.6110499999999996
  2.9216199999999999  1.1136999999999999  7.3237600000000000
  1.5330200000000000  1.8456900000000001  7.0159399999999996
  2.9169100000000001  6.5927899999999999 27.8087000000000018
  3.7908499999999998  6.6265299999999998 28.2732999999999990
  2.9872399999999999  7.2508800000000004 27.1271999999999984
  6.6710399999999996  7.3027199999999999 22.2620000000000005
  5.8385999999999996  7.4175599999999999 22.7656999999999989
  7.1492199999999997  8.1075599999999994 22.5213000000000001
  7.8499400000000001  4.1831800000000001  1.5381300000000000
  7.7007599999999998  4.0080200000000001  0.5765920000000000
  7.4881799999999998  5.0503900000000002  1.8118300000000001
  4.2390299999999996  3.9561199999999999 30.0604000000000013
  3.4503800000000000  3.7741300000000000 29.5058000000000007
  3.8201200000000002  4.2939800000000004  0.7375350000000001
