Cu  O  H  O  H  O  H  O  H  O  H  O  H  O  H  O  H  O  H  O  H  O  H  O  H  O  H  O  H  O  H  O  H  O  H  O  H  O  H  O  H  O  H  O  H  O  H  O  H  O  H  O  H  O  H  O  H  O  H  O  H  O  H  O  H  O  H  O  H  O  H  O  H  O  H  O  H  O  H  O  H  O  H  O  H  O  H  O  H  O  H  O  H  O  H  O  H  O  H  O  H 
 1.0000000000000000
    10.1403771778044529    0.0000000000000000    0.0000000000000000
     0.0000000000000000    8.7818242399346058    0.0000000000000000
     0.0000000000000000    0.0000000000000000   30.1311271579000000
 Cu  O   H   O   H   O   H   O   H   O   H   O   H   O   H   O   H   O   H   O   H   O   H   O   H   O   H   O   H   O   H   O   H   O   H   O   H   O   H   O   H   O   H   O   H   O   H   O   H   O   H   O   H   O   H   O   H   O   H   O   H   O   H   O   H   O   H   O   H   O   H   O   H   O   H   O   H   O   H   O   H   O   H   O   H   O   H   O   H   O   H   O   H   O   H   O   H   O   H   O   H  
  96   1   2   1   2   1   2   1   2   1   2   1   2   1   2   1   2   1   2   1   2   1   2   1   2   1   2   1   2   1   2   1   1   1   2   1   2   1   3   1   2   1   2   1   2   1   1   1   2   1   2   1   2   1   2   1   2   1   1   1   2   1   3   1   2   1   2   1   2   1   2   1   2   1   2   1   2   1   2   1   2   1   2   1   4   1   2   1   1   1   2   1   2   1   2   1   2   1   2   1   2
Cartesian
  6.8797800000000002  0.9463030000000000  9.8587399999999992
  9.5223300000000002  0.9548090000000000  9.8341899999999995
  1.7866400000000000  1.0329200000000001 10.0203000000000007
  4.3731400000000002  0.8667220000000000  9.6292200000000001
  8.2225199999999994  3.0955400000000002  9.9391700000000007
  0.6704900000000000  3.2695099999999999  9.9786800000000007
  3.1751900000000002  3.2196099999999999  9.9807799999999993
  5.5536000000000003  3.0537000000000001  9.9140599999999992
  9.5384700000000002  5.3114200000000000  9.9996700000000001
  1.8567499999999999  5.5016200000000000  9.9611000000000001
  4.3561399999999999  5.3545800000000003  9.8977799999999991
  6.8642799999999999  5.4790400000000004 10.0265000000000004
  0.5881459999999999  7.6093999999999999  9.9678299999999993
  3.1201699999999999  7.5910599999999997  9.8632799999999996
  5.6235600000000003  7.5468799999999998  9.8437400000000004
  8.0425400000000007  7.5283300000000004  9.9891600000000000
  5.6984599999999999  1.8744799999999999 11.9122000000000003
  8.2466699999999999  1.8392599999999999 11.9393999999999991
  0.5742900000000000  1.6372400000000000 12.0495999999999999
  3.2924600000000002  1.8518200000000000 11.9986999999999995
  7.0428199999999999  4.0646599999999999 11.9341000000000008
  9.5150500000000005  3.9161700000000002 11.9802000000000000
  1.8776999999999999  4.0446600000000004 11.9443000000000001
  4.4427500000000002  4.0593899999999996 11.9406999999999996
  8.1872000000000007  6.2816200000000002 12.0769000000000002
  0.5991300000000001  6.1402099999999997 12.0391999999999992
  3.1768800000000001  6.1944400000000002 11.9611999999999998
  5.8183299999999996  6.2247700000000004 12.0815000000000001
  9.4097200000000001  8.3872499999999999 11.8720999999999997
  2.0543999999999998  8.4223999999999997 11.9329000000000001
  4.5049799999999998  8.4634999999999998 11.9413999999999998
  7.0166899999999996  8.6024700000000003 12.0368999999999993
  5.7039600000000004  0.3659090000000000 14.0305999999999997
  8.2390600000000003  0.3659090000000000 14.0305999999999997
  0.6337739999999999  0.3659090000000000 14.0305999999999997
  3.1688700000000001  0.3659090000000000 14.0305999999999997
  6.9715100000000003  2.5613700000000001 14.0305999999999997
  9.5066000000000006  2.5613700000000001 14.0305999999999997
  1.9013199999999999  2.5613700000000001 14.0305999999999997
  4.4364200000000000  2.5613700000000001 14.0305999999999997
  8.2390600000000003  4.7568200000000003 14.0305999999999997
  0.6337739999999999  4.7568200000000003 14.0305999999999997
  3.1688700000000001  4.7568200000000003 14.0305999999999997
  5.7039600000000004  4.7568200000000003 14.0305999999999997
  9.5066000000000006  6.9522800000000000 14.0305999999999997
  1.9013199999999999  6.9522800000000000 14.0305999999999997
  4.4364200000000000  6.9522800000000000 14.0305999999999997
  6.9715100000000003  6.9522800000000000 14.0305999999999997
  6.9715100000000003  1.0977300000000001 16.1005000000000003
  9.5066000000000006  1.0977300000000001 16.1005000000000003
  1.9013199999999999  1.0977300000000001 16.1005000000000003
  4.4364200000000000  1.0977300000000001 16.1005000000000003
  8.2390600000000003  3.2931800000000000 16.1005000000000003
  0.6337739999999999  3.2931800000000000 16.1005000000000003
  3.1688700000000001  3.2931800000000000 16.1005000000000003
  5.7039600000000004  3.2931800000000000 16.1005000000000003
  9.5066000000000006  5.4886400000000002 16.1005000000000003
  1.9013199999999999  5.4886400000000002 16.1005000000000003
  4.4364200000000000  5.4886400000000002 16.1005000000000003
  6.9715100000000003  5.4886400000000002 16.1005000000000003
  0.6337739999999999  7.6840999999999999 16.1005000000000003
  3.1688700000000001  7.6840999999999999 16.1005000000000003
  5.7039600000000004  7.6840999999999999 16.1005000000000003
  8.2390600000000003  7.6840999999999999 16.1005000000000003
  5.7496600000000004  1.9523999999999999 18.0019999999999989
  8.2199600000000004  1.8593000000000000 18.0308999999999990
  0.5926770000000000  1.8508800000000001 18.1453999999999986
  3.1132800000000000  1.7751900000000000 18.1582000000000008
  6.8447600000000000  4.1252700000000004 18.1156000000000006
  9.4636899999999997  4.0301099999999996 18.0730000000000004
  1.8698800000000000  4.0767499999999997 18.2169999999999987
  4.4130900000000004  4.0692700000000004 18.1123000000000012
  8.2161000000000008  6.2814500000000004 18.1823000000000015
  0.6834500000000000  6.2586300000000001 18.2063999999999986
  3.1034500000000000  6.1705199999999998 18.2193000000000005
  5.6198100000000002  6.2341800000000003 18.1036999999999999
  9.5130099999999995  8.4107500000000002 18.0883000000000003
  1.9092000000000000  8.4963499999999996 18.1506000000000007
  4.4610200000000004  8.4901599999999995 18.1493000000000002
  6.9486800000000004  8.3043200000000006 18.2018999999999984
  5.7302200000000001  0.3647990000000000 20.2302000000000000
  8.2632600000000007  0.2414670000000000 19.9009000000000000
  0.6075090000000000  0.4564360000000000 20.2367999999999988
  3.1444200000000002  0.4384970000000000 20.2043999999999997
  6.9517699999999998  2.5508199999999999 20.0029000000000003
  9.4001599999999996  2.6384300000000001 20.0911000000000008
  1.7851900000000001  2.5582400000000001 20.1473000000000013
  4.5641200000000000  2.5212400000000001 20.1444000000000010
  8.2948199999999996  4.8756000000000004 20.2110999999999983
  0.7195240000000001  4.7572700000000001 20.2344000000000008
  3.0844499999999999  4.7368100000000002 20.3378000000000014
  5.6592799999999999  4.8231900000000003 20.2146000000000008
  9.5554500000000004  6.8308600000000004 20.2941000000000003
  1.9119699999999999  7.0533400000000004 20.2073000000000000
  4.3891700000000000  6.9511300000000000 20.2402000000000015
  6.9501299999999997  6.9060800000000002 20.3021999999999991
  3.5275200000000000  3.4939900000000002 23.6406999999999989
  3.8694700000000002  2.5436100000000001 23.6138000000000012
  3.5186999999999999  3.7040000000000002 22.6446000000000005
  4.0509399999999998  3.3829899999999999  5.2464599999999999
  3.4736300000000000  2.6337500000000000  4.9823100000000000
  3.5986899999999999  3.9159600000000001  5.9030300000000002
  5.9242800000000004  2.9444499999999998  7.1743199999999998
  0.5536210000000000  4.4496399999999996 27.4445000000000014
  6.5020800000000003  3.7518300000000000  7.0841500000000002
  4.5743700000000000  2.2725700000000000 27.9701999999999984
  4.6726900000000002  3.0553400000000002 27.4102999999999994
  4.5492299999999997  1.5098199999999999 27.2748999999999988
  9.1634799999999998  3.6988500000000002 23.6918000000000006
  8.4796200000000006  4.2068199999999996 24.1992000000000012
  9.1302599999999998  4.2046200000000002 22.8624000000000009
  3.7867600000000001  0.3061370000000000  4.7396000000000003
  4.2372100000000001  4.4153599999999997 25.2368999999999986
  3.8387699999999998  8.2551199999999998  5.3131899999999996
  8.4200700000000008  5.7879300000000002 29.9708000000000006
  0.9421950000000000  4.5774200000000000  0.5271040000000000
  9.3969000000000005  5.9389500000000002  0.1235410000000000
  4.7774200000000002  4.4856499999999997 26.0436000000000014
  4.8969199999999997  8.3429000000000002 26.3457000000000008
  4.8671600000000002  5.3448099999999998 26.3195000000000014
  3.8095200000000000  4.0116600000000000  0.4203060000000000
  4.1905900000000003  3.6025499999999999 29.7914999999999992
  9.2712199999999996  6.9904999999999999 23.2556000000000012
  8.5410000000000004  7.5736100000000004 23.3850000000000016
  8.1742399999999993  7.7900200000000002 22.5459999999999994
  3.2112699999999998  6.1396400000000000  6.8881100000000002
  4.7104999999999997  0.4619170000000000 26.0046999999999997
  5.0065799999999996  0.4878520000000000 25.0961999999999996
  7.0502599999999997  3.3030499999999998  0.7065310000000000
  1.0995600000000001  2.7938600000000000  0.2899300000000000
  1.0714100000000000  3.1946099999999999 29.4904000000000011
  2.0734300000000001  3.0870799999999998  0.4316750000000000
  0.7820290000000000  5.4741900000000001  0.7580390000000000
  2.8269799999999998  0.4455790000000000  4.5949700000000000
  1.0735600000000001  5.4351900000000004  1.6654199999999999
  1.1517200000000001  5.1255699999999997  3.3446099999999999
  0.4539750000000000  4.4732200000000004  3.5503399999999998
  1.6866500000000000  5.2475600000000000  4.1841699999999999
  1.3373900000000001  4.0059699999999996 27.7878000000000007
  8.1498100000000004  5.3279300000000003  0.6063809999999999
  1.5840399999999999  3.4568300000000001 26.9569000000000010
  4.5172499999999998  0.5172380000000000  1.9129400000000001
  4.3945699999999999  0.2391000000000000  2.8087100000000000
  7.3536799999999998  0.0194399000000000  1.9785100000000000
  7.4529100000000001  8.0549499999999998  2.6130200000000001
  6.3978799999999998  8.7660599999999995  1.6959500000000001
  2.1723800000000000  8.4850100000000008 24.4420000000000002
  1.6435700000000000  7.6940499999999998 24.2363999999999997
  3.0913700000000000  8.3190100000000005 24.5169999999999995
  1.1377600000000001  8.6612600000000004 27.1764000000000010
  1.3949700000000000  0.0080650100000000 26.2147000000000006
  1.9249200000000000  8.5700800000000008 27.7425999999999995
  4.5577500000000004  8.4229400000000005  1.5171800000000000
  2.5509800000000000  5.4798999999999998  6.5940500000000002
  2.4525399999999999  4.9704800000000002  7.4135999999999997
  9.4871400000000001  3.7887700000000000  6.1993000000000000
  9.1311800000000005  4.5836899999999998  6.6051099999999998
  8.9109499999999997  4.3027100000000003  7.5297200000000002
  4.5121700000000002  4.0530700000000000  1.1407000000000000
  7.2338600000000000  4.8816899999999999 25.2584000000000017
  7.3308900000000001  5.8681900000000002 25.4534999999999982
  6.2736900000000002  4.6353400000000002 25.4462000000000010
  7.0895099999999998  3.8725900000000002  1.5205800000000000
  7.8738599999999996  3.8041000000000000  2.1155400000000002
  2.4214199999999999  6.4952899999999998 28.7697000000000003
  2.0076000000000001  6.3472499999999998 29.6740999999999993
  0.2322020000000000  6.4067999999999996 25.1464999999999996
  0.5365920000000000  6.3860099999999997 24.1829000000000001
 -0.2594860000000000  0.1044320000000000  7.4466500000000000
  1.1054600000000001  5.6319200000000000 24.2134000000000000
  9.4665700000000008  0.8900910000000000  7.6651300000000004
  2.1560299999999999  5.6550700000000003 28.2734999999999985
  8.5672599999999992  0.9516770000000000  7.2216800000000001
  4.7155600000000000  6.8962700000000003 27.4344999999999999
  5.3922200000000000  7.2759799999999997 28.0095999999999989
  3.8961399999999999  6.7035900000000002 28.0154999999999994
  0.2121870000000000  7.1929100000000004  6.5312000000000001
  9.6678700000000006  6.5810500000000003  6.8548400000000003
  0.3961800000000000  7.1158599999999996 27.0600999999999985
 10.1693999999999996  6.3107400000000000 26.6847999999999992
  0.7383420000000001  0.5333440000000000  3.5632000000000001
  1.0113300000000001  0.5084680000000000  4.5226400000000000
  1.0217700000000001  6.5894599999999999  6.6060800000000004
  0.7340930000000000  8.5297800000000006  4.9648500000000002
  7.2862999999999998  1.9474300000000000  3.9660000000000002
  7.2999000000000001  1.2638499999999999  3.2470800000000000
  7.3671400000000000  1.3934899999999999  4.7649499999999998
  6.7194200000000004  1.6526600000000000  6.7319000000000004
  7.2063400000000000  0.8449900000000000  6.3717300000000003
  0.3808040000000000  3.3677800000000002 24.6112000000000002
  6.5710199999999999  8.8763699999999996  6.3650099999999998
  1.1826800000000000  3.3933300000000002 25.1357999999999997
  2.0091899999999998  3.4150499999999999 24.5867000000000004
  8.0677199999999996  0.7866720000000000 23.9802999999999997
  8.5978999999999992  6.9139400000000002  3.5216500000000002
  9.1672899999999995  7.2094800000000001  4.2762300000000000
  9.2397899999999993  6.5098599999999998  2.9497800000000001
  4.9520099999999996  0.9711710000000000 23.3406999999999982
  5.8850400000000000  1.2166699999999999 23.3371999999999993
  0.1383560000000000  1.7466699999999999  1.2836700000000001
  9.9519900000000003  1.1972200000000000  2.0091700000000001
  8.4665499999999998  2.9382400000000000  3.6837200000000001
  9.0314300000000003  0.8845900000000000  1.8255399999999999
  9.2312300000000000  3.4160599999999999  3.2261299999999999
  4.7188600000000003  0.6006840000000000 22.4283999999999999
  9.7223000000000006  2.6107399999999998  2.8208899999999999
  6.1836300000000000  1.7848200000000001 30.2119000000000000
  5.5892799999999996  1.9705100000000000 29.3795999999999999
  5.5455100000000002  1.5979200000000000  0.8409110000000000
  0.4552100000000000  0.6751660000000000 22.4191000000000003
  9.2432599999999994  6.6577299999999999 26.4756000000000000
  7.0272600000000001  5.6887800000000004  4.5810899999999997
  6.7025899999999998  4.9244599999999998  5.1302300000000001
  5.6729900000000004  4.5030099999999997  3.1863000000000001
  7.6004500000000004  4.6593600000000004  5.4097700000000000
  4.7637099999999997  4.8477300000000003  3.0450900000000001
  9.9464000000000006 -0.0168133000000000 22.6033000000000008
  4.1995300000000002  4.4409500000000000  3.7866200000000001
  4.7558199999999999  6.8038900000000000  1.0758900000000000
  4.6289999999999996  6.1181200000000002  1.7538499999999999
  4.2968299999999999  6.2926000000000002  0.3262930000000000
  5.3616799999999998  3.0038299999999998  6.3616999999999999
  7.1136799999999996  0.2308310000000000 29.3015000000000008
  7.0686099999999996  8.1163799999999995 28.8682000000000016
  8.3127399999999998  8.4263600000000007 26.0255000000000010
  7.3827499999999997  7.4819100000000001 29.5812999999999988
  7.8699899999999996  7.5945499999999999 26.3186000000000000
  7.6881500000000003  7.8853299999999997 27.2326000000000015
  7.5659999999999998  1.5708000000000000 23.6448999999999998
  8.1621299999999994  2.3440200000000000 23.7317999999999998
  1.3540200000000000  0.5170190000000000 22.7984000000000009
  5.0737600000000000  7.2304599999999999  6.4675200000000004
  5.1279399999999997  7.2515000000000001  7.4150600000000004
  5.5800099999999997  6.3957100000000002  6.2235399999999998
  4.9114899999999997  6.4265400000000001 23.5057000000000009
  5.3781100000000004  5.6880600000000001 23.1636999999999986
  4.8150599999999999  6.9453399999999998 22.7060999999999993
  8.1190999999999995  3.9391900000000000 27.9246000000000016
  7.8624000000000001  4.3521400000000003 27.0883000000000003
  8.3975100000000005  4.6271699999999996 28.5781999999999989
  9.2083200000000005  1.4731300000000001 27.2835999999999999
  9.2092700000000001  2.4011000000000000 27.3492999999999995
 -0.0306282000000000  1.1868300000000001 27.4899999999999984
  1.1075500000000000  2.8387400000000000  6.2681100000000001
  0.9367060000000000  2.0421200000000002  5.6873899999999997
  0.9087960000000000  2.4597400000000000  7.1331499999999997
