Cu O  H  O  H  O  H  O  H  O  H  O  H  O  H  O  H  O  H  O  H  O  H  O  H  O  H  O  H  O  H  O  H  O  H  O  H  O  H  O  H  O  H  O  H  O  H  O  H  O  H  O  H  O  H  O  H  O  H  O  H  O  H  O  H  O  H  O  H  O  H  O  H  O  H  O  H  O  H  O  H  O  H  O  H  O  H  O  H  O  H  O  H  O  H  O  H  O  H  O  H 
 1.0000000000000000
    10.1403771778044529    0.0000000000000000    0.0000000000000000
     0.0000000000000000    8.7818242399346058    0.0000000000000000
     0.0000000000000000    0.0000000000000000   30.1311271579000000
 Cu  O   H   O   H   O   H   O   H   O   H   O   H   O   H   O   H   O   H   O   H   O   H   O   H   O   H   O   H   O   H   O   H   O   H   O   H   O   H   O   H   O   H   O   H   O   H   O   H   O   H   O   H   O   H   O   H   O   H   O   H   O   H   O   H   O   H   O   H   O   H   O   H   O   H   O   H   O   H   O   H   O   H   O   H   O   H   O   H   O   H   O   H   O   H   O   H   O   H   O   H  
  96   1   2   1   2   1   2   1   2   1   2   1   2   1   2   1   2   1   2   1   2   1   2   1   2   1   2   1   2   1   2   1   1   1   2   1   2   1   3   1   2   1   2   1   2   1   1   1   2   1   2   1   2   1   2   1   2   1   1   1   2   1   3   1   2   1   2   1   2   1   2   1   2   1   2   1   2   1   2   1   2   1   2   1   4   1   2   1   1   1   2   1   2   1   2   1   2   1   2   1   2
Cartesian
  7.0438099999999997  1.2715399999999999  9.7878299999999996
  9.6356000000000002  1.1495700000000000  9.7013300000000005
  1.8912599999999999  1.1216699999999999  9.7577400000000001
  4.4450900000000004  1.1353599999999999 10.0063999999999993
  8.2074900000000000  3.3772099999999998  9.8039799999999993
  0.5762580000000000  3.2943899999999999 10.0090000000000003
  3.2342700000000000  3.3113199999999998 10.0485000000000007
  5.7261300000000004  3.2101799999999998 10.0748999999999995
  9.5792400000000004  5.4486800000000004  9.9847300000000008
  2.1194299999999999  5.5456200000000004  9.8540500000000009
  4.5694299999999997  5.4523000000000001 10.1007999999999996
  7.0357200000000004  5.5748899999999999 10.0343999999999998
  0.6902779999999999  7.6514499999999996 10.0053000000000001
  3.2869600000000001  7.6318599999999996  9.9452800000000003
  5.7980999999999998  7.7647599999999999  9.8318200000000004
  8.2118500000000001  7.8722300000000001  9.9143200000000000
  5.8522200000000000  1.8927499999999999 12.0496999999999996
  8.3492700000000006  1.7991900000000001 11.9385999999999992
  0.7038410000000000  1.8352500000000000 11.8992000000000004
  3.3270900000000001  1.8143899999999999 12.0580999999999996
  6.9826499999999996  4.0376899999999996 12.1133000000000006
  9.4732800000000008  4.0015299999999998 11.9832999999999998
  1.9957199999999999  3.9418700000000002 11.9512999999999998
  4.5831400000000002  3.9229900000000000 12.1119000000000003
  8.3035800000000002  6.1972699999999996 11.8991000000000007
  0.6748860000000000  6.1622899999999996 11.9687999999999999
  3.3001900000000002  6.2573800000000004 11.9967000000000006
  5.8481300000000003  6.3045400000000003 11.9986999999999995
  9.5721299999999996  8.4384300000000003 11.9023000000000003
  1.8920600000000001  8.4840800000000005 11.8543000000000003
  4.5175099999999997  8.4384899999999998 11.8560999999999996
  6.9310999999999998  8.4324499999999993 11.8681000000000001
  5.7039600000000004  0.3659090000000000 14.0305999999999997
  8.2390600000000003  0.3659090000000000 14.0305999999999997
  0.6337739999999999  0.3659090000000000 14.0305999999999997
  3.1688700000000001  0.3659090000000000 14.0305999999999997
  6.9715100000000003  2.5613700000000001 14.0305999999999997
  9.5066000000000006  2.5613700000000001 14.0305999999999997
  1.9013199999999999  2.5613700000000001 14.0305999999999997
  4.4364200000000000  2.5613700000000001 14.0305999999999997
  8.2390600000000003  4.7568200000000003 14.0305999999999997
  0.6337739999999999  4.7568200000000003 14.0305999999999997
  3.1688700000000001  4.7568200000000003 14.0305999999999997
  5.7039600000000004  4.7568200000000003 14.0305999999999997
  9.5066000000000006  6.9522800000000000 14.0305999999999997
  1.9013199999999999  6.9522800000000000 14.0305999999999997
  4.4364200000000000  6.9522800000000000 14.0305999999999997
  6.9715100000000003  6.9522800000000000 14.0305999999999997
  6.9715100000000003  1.0977300000000001 16.1005000000000003
  9.5066000000000006  1.0977300000000001 16.1005000000000003
  1.9013199999999999  1.0977300000000001 16.1005000000000003
  4.4364200000000000  1.0977300000000001 16.1005000000000003
  8.2390600000000003  3.2931800000000000 16.1005000000000003
  0.6337739999999999  3.2931800000000000 16.1005000000000003
  3.1688700000000001  3.2931800000000000 16.1005000000000003
  5.7039600000000004  3.2931800000000000 16.1005000000000003
  9.5066000000000006  5.4886400000000002 16.1005000000000003
  1.9013199999999999  5.4886400000000002 16.1005000000000003
  4.4364200000000000  5.4886400000000002 16.1005000000000003
  6.9715100000000003  5.4886400000000002 16.1005000000000003
  0.6337739999999999  7.6840999999999999 16.1005000000000003
  3.1688700000000001  7.6840999999999999 16.1005000000000003
  5.7039600000000004  7.6840999999999999 16.1005000000000003
  8.2390600000000003  7.6840999999999999 16.1005000000000003
  5.5916199999999998  1.8872500000000001 18.1470999999999982
  8.1798500000000001  1.7382599999999999 18.1729999999999983
  0.6861690000000000  1.8553599999999999 18.1949000000000005
  3.1812800000000001  1.8613400000000000 18.2565999999999988
  6.7857900000000004  4.0755800000000004 18.2500000000000000
  9.3791100000000007  3.9434700000000000 18.1703000000000010
  1.7897900000000000  3.9985800000000000 18.1482999999999990
  4.3580699999999997  4.1349400000000003 18.1972999999999985
  8.2555599999999991  6.1626200000000004 18.1149999999999984
  0.7180400000000000  6.2235300000000002 18.2712000000000003
  3.0972000000000000  6.4023500000000002 18.2319999999999993
  5.6060800000000004  6.3241699999999996 18.2211999999999996
  9.5834100000000007  8.4043299999999999 18.1957999999999984
  1.9146600000000000  8.4185499999999998 18.1161999999999992
  4.5134100000000004  8.4833900000000000 18.1695999999999991
  6.9249900000000002  8.3903900000000000 18.2112000000000016
  5.7058700000000000  0.3781610000000000 20.1888000000000005
  8.2346299999999992  0.3740320000000000 20.0905999999999985
  0.7541700000000000  0.3782130000000000 20.1815999999999995
  3.2720300000000000  0.3602050000000000 20.2353999999999985
  7.1629800000000001  2.5466500000000001 20.2040000000000006
  9.4829500000000007  2.6629100000000001 20.2066000000000017
  1.8803200000000000  2.4906500000000000 20.1443000000000012
  4.5894100000000000  2.7367599999999999 20.2409999999999997
  8.3025699999999993  4.8060600000000004 20.3059000000000012
  0.6420470000000000  4.6531700000000003 20.1981000000000002
  3.1747399999999999  4.6966500000000000 20.1723999999999997
  5.7023799999999998  4.9015899999999997 20.4787999999999997
  9.4700600000000001  7.0101500000000003 20.3941000000000017
  1.9933000000000001  6.8530199999999999 20.3790000000000013
  4.4557900000000004  6.9800700000000004 20.2544000000000004
  6.9991300000000001  6.9724899999999996 20.1665999999999990
  6.1820800000000000  4.8632299999999997 22.6255999999999986
  5.8471799999999998  5.2234499999999997 23.5107999999999997
  7.0983599999999996  5.0942100000000003 22.8310999999999993
  6.6797800000000001  1.3456600000000001 29.0655999999999999
  6.2043999999999997  2.2711700000000001 29.0260999999999996
  6.1894400000000003  0.8601060000000000 29.7170999999999985
  8.4718099999999996  8.5298099999999994 23.4207999999999998
  8.0691199999999998  2.9330200000000000 23.3125000000000000
  8.0321400000000001  0.6604080000000000 23.4997000000000007
  1.6694700000000000  5.4926800000000000 27.6527999999999992
  0.9266880000000000  5.5293900000000002 27.0218999999999987
  2.0418500000000002  6.3806700000000003 27.7442999999999991
  7.5046799999999996  4.7397200000000002  3.3039600000000000
  6.6238500000000000  4.9775299999999998  3.6092000000000000
  8.1338399999999993  4.9434500000000003  3.9910600000000001
  2.5259900000000002  1.6642500000000000  7.1468600000000002
  6.0064900000000003  7.2601599999999999 30.1458000000000013
  3.0878800000000002  2.4858500000000001  7.1421200000000002
  4.7982300000000002  1.7977700000000001 24.6457000000000015
 -0.1924970000000000  3.3923100000000002  7.5227100000000000
  4.8611000000000004  0.9715590000000000 25.2565999999999988
  5.4911399999999997  8.0015199999999993  0.3865980000000000
  0.7988780000000000  8.6043599999999998 26.0841999999999992
  4.8897700000000004  7.6976800000000001  1.0863000000000000
  3.4095900000000001  0.8060900000000000 22.4765000000000015
  4.1784100000000004  1.2493700000000001 22.8523999999999994
  4.7356800000000003  4.0128100000000000 27.6564000000000014
  5.4976599999999998  4.0065900000000001 28.2394999999999996
  6.2266700000000004  3.8689100000000001 27.5979999999999990
  4.8181300000000000  1.2471600000000000  6.7755299999999998
  0.8561800000000001  8.2948799999999991 27.0082999999999984
 10.0244000000000000  8.1480099999999993 27.2026000000000003
  4.3561100000000001  6.7275600000000004 24.9700999999999986
  1.6480600000000001  2.3358599999999998  2.7062100000000000
  1.4054800000000001  3.2698499999999999  2.5379900000000002
  1.4973900000000000  1.9737100000000001  1.7624100000000000
  0.0814960000000000  2.8232900000000001  6.7416400000000003
  1.6127000000000000  1.9277899999999999  6.8082200000000004
  9.4286799999999999  2.3355600000000001  6.4366199999999996
  1.5765199999999999  4.9855600000000004  3.0430299999999999
  1.1765399999999999  5.4514300000000002  2.2694000000000001
  0.9821130000000000  5.1597499999999998  3.7887300000000002
  7.7082600000000001  2.6866200000000000 24.1847999999999992
  4.3036099999999999  2.3279700000000001 25.1971999999999987
  6.7116100000000003  2.4855200000000002 24.0845999999999982
  7.7552899999999996  2.2454700000000001  5.7078800000000003
  7.4505600000000003  3.1274299999999999  5.8911199999999999
  4.9647199999999998  7.1454100000000000  5.7974199999999998
  4.7893100000000004  6.7828200000000001  4.9287500000000000
  5.3295700000000004  8.0270200000000003  5.7606200000000003
  6.9629599999999998  2.0981399999999999  2.6405599999999998
  7.2310999999999996  2.2683300000000002  1.7100700000000000
  7.1597499999999998  2.9339900000000001  3.0825399999999998
  5.0303000000000004  8.1085600000000007 26.0408000000000008
  4.6814000000000000  7.9882499999999999 26.9334999999999987
  5.8410399999999996  7.6595100000000000 26.0826999999999991
  7.0737800000000002  1.6757500000000001  6.2015000000000002
  5.3400699999999999  1.1219300000000001  6.0419900000000002
  4.7822899999999997  1.4285200000000000  5.3107699999999998
  0.2272980000000000  0.3911210000000000 23.7963999999999984
  0.9950310000000000  0.9366560000000000 24.1259000000000015
  0.8516010000000001  1.8196800000000000 23.8779000000000003
  2.6982599999999999  1.4422100000000000 22.4797000000000011
  3.4626199999999998  3.5439400000000001 26.5051999999999985
  3.4872399999999999  4.4774300000000000 26.1663999999999994
  2.6529600000000002  3.3809100000000001 27.0245999999999995
  4.0261300000000002  5.8938199999999998 24.6264000000000003
  3.4090699999999998  6.2841800000000001 23.9758999999999993
  7.0306199999999999  6.1319100000000004 29.1297999999999995
  7.4667899999999996  5.5235599999999998 29.8092000000000006
  1.1317699999999999  5.8667999999999996 29.7189000000000014
  0.6915740000000000  5.9238499999999998  0.4624460000000000
  5.3126899999999999  2.1679400000000002  3.2937599999999998
 10.0284999999999993  5.4083699999999997  0.5165440000000000
  4.4518100000000000  2.0949700000000000  3.7299300000000000
  6.4623499999999998  5.4826499999999996 28.6236999999999995
  3.7080099999999998  2.0730499999999998  3.1240399999999999
  8.2952499999999993  4.5050400000000002  0.8134320000000000
  8.0964600000000004  4.6406599999999996  1.8476200000000000
  8.7650500000000005  3.6959399999999998  0.6796870000000000
  1.5507000000000000  0.6430210000000000  0.0030940400000000
  1.8619800000000000  8.7863900000000008  0.6268899999999999
  9.7773199999999996  8.2146500000000007  2.7231000000000001
  9.1965800000000009  7.9158200000000001  2.0270700000000001
  1.6954000000000000  6.2356900000000000  7.3315900000000003
  1.3472100000000000  5.2751700000000001  7.5374499999999998
  0.6047360000000001  0.8026390000000000  0.1096480000000000
  2.1591999999999998  4.7481900000000001  7.2891899999999996
  0.7394670000000000  0.0804426000000000  3.6813199999999999
  0.2533620000000000  8.8296600000000005  4.4820300000000000
  0.9780970000000000  1.0240000000000000  3.5635599999999998
 10.0602000000000000  5.3363699999999996  5.8347600000000002
  9.6244200000000006  5.6596000000000002  5.0685500000000001
  8.3421099999999999  3.9776799999999999 26.5905999999999985
  9.4204899999999991  6.5727900000000004  5.2850599999999996
  7.8010599999999997  3.3959800000000002 27.1590999999999987
  7.4516000000000000  2.7953899999999998 26.5288000000000004
  1.5644000000000000  4.0275800000000004 23.3105000000000011
  1.9845400000000000  7.0370900000000001 23.0182000000000002
  2.1037100000000000  7.8875400000000004 22.5471000000000004
  1.4334100000000001  6.4421799999999996 22.4323000000000015
  9.6692199999999993  5.0665100000000001 25.8464999999999989
  0.0081283100000000  4.5147899999999996 25.1829000000000001
  5.2282400000000004  5.2282299999999999  0.6503750000000000
  4.5152200000000002  5.1671800000000001  1.2718499999999999
  8.0950399999999991  7.1699999999999999 24.4843000000000011
  3.9285700000000001  4.5640499999999999  0.8893650000000000
  7.6701300000000003  6.5499700000000001 25.1092000000000013
  9.0340199999999999  5.6307200000000002 25.3814999999999991
  7.8942199999999998  6.9765499999999996 25.9295000000000009
  2.6588699999999998  3.0799200000000000 30.0304000000000002
  2.5880899999999998  2.1168499999999999 29.8248999999999995
  1.9689000000000001  3.5832400000000000 29.5670000000000002
  8.3014299999999999  7.9582899999999999 27.2810999999999986
  9.7736300000000007  7.4040200000000000  1.4506200000000000
  8.9919100000000007  1.1501699999999999  1.2222400000000000
  9.0374199999999991  1.8286899999999999  0.5059129999999999
  7.1090700000000000  0.5674920000000000  3.5134500000000002
  8.2168100000000006  1.7224500000000000 30.0587000000000018
  7.0271299999999997  8.4370300000000000  3.9024600000000000
  7.9842700000000004  7.3632900000000001 28.0540999999999983
  7.4231699999999998  7.7988700000000000  3.2235999999999998
  0.7540370000000000  2.6068699999999998 27.7189000000000014
  0.9423830000000000  1.6812300000000000 27.9014999999999986
  9.9753200000000000  2.6683300000000001 27.5985000000000014
  8.2278800000000007  8.2210400000000003 22.4945999999999984
  5.0995299999999997  3.7839000000000000  7.0690200000000001
  4.1379400000000004  3.8533800000000000  7.2515200000000002
  6.1931900000000004  5.7565700000000000  6.4802200000000001
  4.0758099999999997  4.3151999999999999  8.1337100000000007
  6.8646099999999999  5.0719599999999998  6.5004900000000001
  7.4912299999999998  5.3309100000000003  7.1651499999999997
  0.7711950000000000  3.5722399999999999 23.5913000000000004
  0.2256320000000000  3.7449400000000002 22.8094999999999999
  7.9093400000000003  8.8038200000000000 27.3771999999999984
  2.5244000000000000  7.4251199999999997  7.0658000000000003
  3.3609900000000001  7.3849299999999998  6.4874000000000001
  2.1512400000000000  8.2595600000000005  6.9697800000000001
  4.7362000000000002  5.2588800000000004  3.8930799999999999
  4.6677099999999996  5.3346299999999998  2.9397500000000001
  4.4955499999999997  4.3333199999999996  4.0618999999999996
  3.2603700000000000  7.8476299999999997 28.3850000000000016
  2.5160399999999998  8.4451099999999997 28.2826999999999984
  3.7095199999999999  8.0658100000000008 29.1926999999999985
  9.0148499999999991  8.2909600000000001  5.8982500000000000
  8.3091299999999997  8.4940099999999994  5.2644599999999997
  8.5438600000000005  8.2258499999999994  6.7337199999999999
  2.5772400000000002  7.7908200000000001  1.9519700000000000
  2.4920100000000001  6.8302500000000004  1.7151799999999999
  1.9449300000000000  7.9230700000000001  2.7030400000000001
