Cu O  H  O  H  O  H  O  H  O  H  O  H  O  H  O  H  O  H  O  H  O  H  O  H  O  H  O  H  O  H  O  H  O  H  O  H  O  H  O  H  O  H  O  H  O  H  O  H  O  H  O  H  O  H  O  H  O  H  O  H  O  H  O  H  O  H  O  H  O  H  O  H  O  H  O  H  O  H  O  H  O  H  O  H  O  H  O  H  O  H  O  H  O  H  O  H  O  H  O  H 
 1.0000000000000000
    10.1403771778044529    0.0000000000000000    0.0000000000000000
     0.0000000000000000    8.7818242399346058    0.0000000000000000
     0.0000000000000000    0.0000000000000000   30.1311271579000000
 Cu  O   H   O   H   O   H   O   H   O   H   O   H   O   H   O   H   O   H   O   H   O   H   O   H   O   H   O   H   O   H   O   H   O   H   O   H   O   H   O   H   O   H   O   H   O   H   O   H   O   H   O   H   O   H   O   H   O   H   O   H   O   H   O   H   O   H   O   H   O   H   O   H   O   H   O   H   O   H   O   H   O   H   O   H   O   H   O   H   O   H   O   H   O   H   O   H   O   H   O   H  
  96   1   2   1   2   1   2   1   2   1   2   1   2   1   2   1   2   1   2   1   2   1   2   1   2   1   2   1   2   1   2   1   1   1   2   1   2   1   3   1   2   1   2   1   2   1   1   1   2   1   2   1   2   1   2   1   2   1   1   1   2   1   3   1   2   1   2   1   2   1   2   1   2   1   2   1   2   1   2   1   2   1   2   1   4   1   2   1   1   1   2   1   2   1   2   1   2   1   2   1   2
Cartesian
  6.9737700000000000  1.1215100000000000  9.6433999999999997
  9.4102899999999998  1.1254900000000001  9.7906200000000005
  1.7638700000000000  0.9794730000000000  9.9532699999999998
  4.3309400000000000  1.0012200000000000  9.7652800000000006
  8.1488099999999992  3.4073799999999999  9.6696299999999997
  0.6591180000000000  3.1912199999999999  9.8995599999999992
  3.2266200000000000  3.3508700000000000  9.8068000000000008
  5.6669700000000001  3.1656100000000000  9.8480299999999996
  9.4886199999999992  5.3696700000000002  9.9154499999999999
  1.8290800000000000  5.3305400000000001  9.9169499999999999
  4.4555199999999999  5.4621399999999998  9.8229600000000001
  6.9205399999999999  5.4322100000000004  9.7067300000000003
  0.4028070000000000  7.5006899999999996  9.7839799999999997
  2.9741300000000002  7.5915499999999998 10.0261999999999993
  5.6883499999999998  7.5287800000000002  9.8708299999999998
  8.0882799999999992  7.6578299999999997  9.8214400000000008
  5.6342600000000003  1.7114900000000000 11.9129000000000005
  8.1377400000000009  1.8173900000000001 11.7477999999999998
  0.6071420000000000  1.7914099999999999 11.9932999999999996
  3.1806800000000002  1.8220099999999999 11.8938000000000006
  7.1101799999999997  3.8893200000000001 11.8726000000000003
  9.5843500000000006  3.9313199999999999 11.7949000000000002
  1.9661299999999999  3.9993400000000001 11.8411000000000008
  4.4641700000000002  4.0014099999999999 11.9428000000000001
  8.2674500000000002  6.2369899999999996 11.9052000000000007
  0.7413410000000000  6.2454599999999996 11.9472000000000005
  3.1812999999999998  6.2260400000000002 11.9489000000000001
  5.7826599999999999  5.9594899999999997 11.9123999999999999
  9.4805100000000007  8.4878199999999993 11.9517000000000007
  1.7730500000000000  8.3686600000000002 11.9658999999999995
  4.4092300000000000  8.3672299999999993 11.8760999999999992
  6.9935999999999998  8.3977000000000004 12.0185999999999993
  5.7039600000000004  0.3659090000000000 14.0305999999999997
  8.2390600000000003  0.3659090000000000 14.0305999999999997
  0.6337739999999999  0.3659090000000000 14.0305999999999997
  3.1688700000000001  0.3659090000000000 14.0305999999999997
  6.9715100000000003  2.5613700000000001 14.0305999999999997
  9.5066000000000006  2.5613700000000001 14.0305999999999997
  1.9013199999999999  2.5613700000000001 14.0305999999999997
  4.4364200000000000  2.5613700000000001 14.0305999999999997
  8.2390600000000003  4.7568200000000003 14.0305999999999997
  0.6337739999999999  4.7568200000000003 14.0305999999999997
  3.1688700000000001  4.7568200000000003 14.0305999999999997
  5.7039600000000004  4.7568200000000003 14.0305999999999997
  9.5066000000000006  6.9522800000000000 14.0305999999999997
  1.9013199999999999  6.9522800000000000 14.0305999999999997
  4.4364200000000000  6.9522800000000000 14.0305999999999997
  6.9715100000000003  6.9522800000000000 14.0305999999999997
  6.9715100000000003  1.0977300000000001 16.1005000000000003
  9.5066000000000006  1.0977300000000001 16.1005000000000003
  1.9013199999999999  1.0977300000000001 16.1005000000000003
  4.4364200000000000  1.0977300000000001 16.1005000000000003
  8.2390600000000003  3.2931800000000000 16.1005000000000003
  0.6337739999999999  3.2931800000000000 16.1005000000000003
  3.1688700000000001  3.2931800000000000 16.1005000000000003
  5.7039600000000004  3.2931800000000000 16.1005000000000003
  9.5066000000000006  5.4886400000000002 16.1005000000000003
  1.9013199999999999  5.4886400000000002 16.1005000000000003
  4.4364200000000000  5.4886400000000002 16.1005000000000003
  6.9715100000000003  5.4886400000000002 16.1005000000000003
  0.6337739999999999  7.6840999999999999 16.1005000000000003
  3.1688700000000001  7.6840999999999999 16.1005000000000003
  5.7039600000000004  7.6840999999999999 16.1005000000000003
  8.2390600000000003  7.6840999999999999 16.1005000000000003
  5.8560299999999996  1.8502500000000000 18.1083999999999996
  8.2103099999999998  1.9333400000000001 18.1683999999999983
  0.6329800000000000  2.0066299999999999 18.2378999999999998
  3.1428099999999999  1.8304499999999999 18.2364999999999995
  6.9371999999999998  4.0652900000000001 18.1368000000000009
  9.4940700000000007  4.1492300000000002 18.1090000000000018
  2.0531500000000000  4.0386699999999998 18.2931999999999988
  4.4896399999999996  4.0273800000000000 18.1030000000000015
  8.2348300000000005  6.3159700000000001 18.0679000000000016
  0.5548560000000000  6.1283700000000003 18.1790999999999983
  3.0031699999999999  6.2530900000000003 18.1010999999999989
  5.6560899999999998  6.2933300000000001 18.2341000000000015
  9.5090400000000006  8.5282199999999992 18.0784999999999982
  1.7912999999999999  8.4016199999999994 18.1998999999999995
  4.3074500000000002  8.5224899999999995 18.1716000000000015
  6.8864599999999996  8.4198299999999993 18.1616000000000000
  5.5146899999999999  0.3373960000000000 20.3069999999999986
  8.2501700000000007  0.2600530000000000 20.3004999999999995
  0.4634630000000000  0.3987860000000000 20.3052999999999990
  2.8515600000000001  0.2882670000000000 20.4159000000000006
  6.9262499999999996  2.7853699999999999 20.1172000000000004
  9.4032499999999999  2.5173800000000002 20.3206999999999987
  1.9021699999999999  2.6472699999999998 20.2066000000000017
  4.5292399999999997  2.5965400000000001 20.1098999999999997
  8.2131200000000000  4.9394099999999996 20.1424999999999983
  0.5328610000000000  4.6573599999999997 20.2927000000000000
  3.1108300000000000  4.8489399999999998 20.2864000000000004
  5.6728600000000000  4.7613099999999999 20.3209000000000017
  9.4733599999999996  6.9140699999999997 20.2262999999999984
  1.7567999999999999  6.8922999999999996 20.2540000000000013
  4.4084899999999996  6.9866999999999999 20.0043000000000006
  6.9519200000000003  6.9410600000000002 20.2537999999999982
  3.5712100000000002  6.9559800000000003 24.6979000000000006
  3.7022200000000001  6.0733499999999996 24.2540000000000013
  4.5114200000000002  7.1881000000000004 24.9424999999999990
  5.1072800000000003  4.1542599999999998 28.5315000000000012
  4.6522300000000003  3.3733399999999998 28.8244000000000007
  5.7469700000000001  4.2714999999999996 29.2724000000000011
  5.6507899999999998  8.5675500000000007 29.1448999999999998
  2.1520800000000002  6.4041100000000002 25.9524000000000008
  4.9272099999999996  7.8625999999999996 28.8502000000000010
  5.9211900000000002  0.2950290000000000  1.6429900000000000
  5.9631499999999997  0.1714760000000000  0.6161150000000000
  6.1942500000000003  8.2125199999999996  2.0316500000000000
  3.6743299999999999  0.6915130000000000 27.2389000000000010
  3.0001199999999999  0.0537962000000000 26.8677999999999990
  3.6288100000000001  1.5411200000000000 26.7673999999999985
  7.1979800000000003  4.4458000000000002  2.8921999999999999
  0.6224050000000000  3.5469900000000001  0.3448280000000000
  6.8001600000000000  3.5365799999999998  3.1361500000000002
  5.6659300000000004  0.6750580000000000 22.3532000000000011
  1.0267900000000001  7.6695200000000003  6.8268899999999997
  6.2621300000000000  1.3678800000000000 22.5764999999999993
  1.0569000000000000  3.7295400000000001 29.6331999999999987
  3.7870100000000000  4.3425500000000001 22.8530000000000015
  0.4041510000000000  3.8866900000000002 28.9578999999999986
  0.1783320000000000  4.9445699999999997 23.4842000000000013
  0.3551650000000000  5.0532300000000001 22.5673999999999992
  7.2319300000000002  1.7531800000000000  4.1271100000000001
  6.4043799999999997  2.1197499999999998  3.6288399999999998
  6.1609100000000003  1.4050000000000000  3.1237499999999998
  8.1755800000000001  7.5310899999999998  6.8980399999999999
  4.1912399999999996  4.3820399999999999 23.6950000000000003
  5.0286000000000000  3.9650799999999999 23.6528999999999989
  7.1748300000000000  4.0042799999999996 23.6640000000000015
  1.2408100000000000  4.4188400000000003  7.0170800000000000
  1.2653600000000000  3.4301900000000001  7.1151999999999997
  2.0889400000000000  4.8045400000000003  6.9960500000000003
  0.3384190000000000  7.1773699999999998  7.3776099999999998
  7.7815799999999999  4.8402900000000004  3.6240999999999999
  0.5070990000000000  6.1957800000000001  7.2596100000000003
  1.8209800000000000  8.2542700000000000  5.5403599999999997
  2.3773800000000000  7.6961500000000003  4.8461800000000004
  2.1187399999999998  0.3624130000000000  5.4104299999999999
  1.8074100000000000  6.1980399999999998 26.8526999999999987
  4.8141600000000002  0.8202620000000000 22.9049000000000014
  0.8427860000000000  6.2004299999999999 26.7882999999999996
  3.1695600000000002  6.8830999999999998  3.5972000000000000
  4.0628900000000003  6.5636799999999997  3.8792200000000001
  8.6212999999999997  1.3425300000000000  4.9954799999999997
  8.2271400000000003  0.5326760000000000  5.4680299999999997
  9.2407699999999995  0.8744490000000000  4.4096799999999998
  8.0998800000000006  7.0763499999999997  1.0116700000000001
  8.3461700000000008  6.6950300000000000  1.8884500000000000
  8.9868500000000004  7.2472200000000004  0.5496570000000000
  3.2521800000000001  0.9956710000000000 23.5005999999999986
  3.2916300000000001  0.0283903000000000 23.7590000000000003
  2.7948700000000000  1.1063600000000000 22.6260000000000012
  3.3761700000000001  7.6073599999999999  3.0370400000000002
  7.5458200000000000  7.8407200000000001  6.2732900000000003
  6.6484300000000003  7.6128499999999999  6.7000000000000002
  8.0866500000000006  4.3206499999999997 28.6025999999999989
  8.6613799999999994  4.0869200000000001 27.8634999999999984
  8.6830499999999997  3.1165500000000002 27.7787000000000006
  0.4952870000000000  3.9993200000000000 23.7302000000000000
  9.1285100000000003  6.1513799999999996 26.1595000000000013
  9.0497499999999995  5.3354799999999996 26.6678999999999995
  8.5623600000000000  6.7849800000000000 26.6595000000000013
  6.6909500000000000  3.1502400000000002 23.6309000000000005
  7.2524699999999998  2.4791099999999999 23.9962000000000018
  3.3706600000000000  2.0865700000000000 29.4714999999999989
  3.4424299999999999  1.4349499999999999 28.7084000000000010
  7.1818600000000004  8.2876899999999996 26.0651000000000010
  7.5865400000000003  8.5486000000000004 26.8801999999999985
  4.9621899999999997  8.5146400000000000  6.3367300000000002
  6.8666000000000000  8.4443800000000007 27.5888999999999989
  5.1137400000000000  7.6766399999999999  6.8281599999999996
  2.4775600000000000  2.5960700000000001 29.4281000000000006
  4.3624700000000001  7.7621399999999996  7.4478900000000001
  4.3089800000000000  5.1251499999999997  6.2442599999999997
  4.8572400000000000  5.9145799999999999  6.2457399999999996
  4.7871300000000003  4.3673999999999999  6.5695300000000003
 10.1925000000000008  0.0419720000000000  2.9955200000000000
  1.0243100000000001  0.0994652000000000  2.9502100000000002
  4.4832900000000002  1.0511900000000001  4.8580800000000002
  4.0026700000000002  1.1313599999999999  5.6809700000000003
 -0.2021200000000000  5.0429599999999999  2.8103799999999999
  9.5471400000000006  5.8559299999999999  3.1678899999999999
  9.8853399999999993  8.3942800000000002  2.1758999999999999
 10.2477000000000000  6.2837100000000001  3.6678500000000001
  9.9641300000000008  8.4438200000000005 29.6651999999999987
  0.7360540000000000  8.1811100000000003 29.8706999999999994
 10.0286000000000008 -0.0837717000000000 28.6668999999999983
  8.9966600000000003  1.0602900000000000  0.4430900000000000
  8.3429699999999993  1.6108700000000000  0.9006580000000000
  7.5910500000000001  4.1266600000000002  0.6607020000000000
  7.6203000000000003  0.9808300000000000  1.0322100000000001
  7.3178900000000002  4.7104900000000001 30.0399999999999991
  7.3301699999999999  5.6311400000000003  0.1906900000000000
  7.4298299999999999  5.6109700000000000 22.5581999999999994
  8.3178699999999992  0.8349630000000000 23.6646000000000001
  8.4913100000000004  0.7476600000000000 22.6674000000000007
  8.9412900000000004  0.1633680000000000 23.9345999999999997
  9.6423000000000005  1.5342100000000001 27.2419000000000011
  0.2423690000000000  1.6638400000000000 26.6798000000000002
  4.3826299999999998  5.8838499999999998 28.5317000000000007
  3.9308299999999998  6.7396300000000000 28.5826999999999991
 10.1186000000000007  6.9232500000000003 24.8717000000000006
  3.0760000000000001  6.5867199999999997 28.0222000000000016
  0.2977370000000000  7.7172099999999997 24.3274000000000008
  9.0424199999999999  0.9350630000000000 26.8018000000000001
  0.9857490000000000  7.2993399999999999 23.8597000000000001
  7.6304299999999996  4.4916900000000002  6.0517599999999998
  8.3452199999999994  4.6626300000000001  6.6984000000000004
  7.9326100000000004  3.7918300000000000  5.5169400000000000
  0.5902120000000000  2.4044200000000000 24.0764999999999993
  4.3932500000000001  1.8856299999999999  6.1753900000000002
  3.3479500000000000  3.3150200000000001  3.7743099999999998
  2.8704600000000000  3.1602700000000001  2.9960300000000002
  6.1048700000000000  2.5777299999999999  7.7372199999999998
  3.0014500000000002  3.9362599999999999  2.3812899999999999
  5.7418500000000003  2.9407399999999999  6.8331900000000001
  1.3915299999999999  1.9297700000000000 23.7486999999999995
  6.4543299999999997  3.6606299999999998  6.6791700000000001
  0.2175170000000000  3.4514300000000002  1.9974900000000000
  9.7305499999999991  2.7060300000000002  2.0892300000000001
  0.9254450000000000  3.2509999999999999  2.6644100000000002
  5.4167300000000003  0.5654520000000000 28.5964999999999989
  2.4458500000000001  5.9269400000000001  1.4115500000000001
  2.8146300000000002  5.0732999999999997  1.2233900000000000
  1.0518500000000000  0.8679890000000000  6.6791600000000004
  2.1589999999999998  4.7715399999999999  0.5714950000000000
  0.6421020000000000  1.7126999999999999  6.9657600000000004
  9.9833099999999995  1.6511000000000000  6.3915600000000001
  7.6189400000000003  5.6258299999999997 23.5213999999999999
  8.5614000000000008  5.3767199999999997 23.4939000000000000
 -0.1861420000000000  1.9502100000000000 23.7054000000000009
  3.3044400000000000  0.8011120000000000  1.9884800000000000
  3.0806000000000000  1.7630500000000000  2.0135999999999998
  4.2911999999999999  0.7334190000000000  1.8185800000000001
  2.2412700000000001  7.8367800000000001  0.3420090000000000
  2.8676400000000002  7.3179800000000004 29.8670000000000009
  2.7699400000000001  8.5821799999999993  0.7617159999999999
  6.5105300000000002  7.8383099999999999 24.4997000000000007
  6.7818300000000002  8.5940399999999997 23.9647000000000006
  7.0440500000000004  7.1016500000000002 24.3026000000000018
  6.0921500000000002  6.8607600000000000  3.3710800000000001
  6.2820299999999998  5.8915199999999999  3.3597199999999998
  6.4556800000000001  7.0783500000000004  4.2385799999999998
  2.9067500000000002  2.9673200000000000 25.9401000000000010
  2.3826999999999998  3.7657099999999999 26.1539999999999999
  3.2986599999999999  3.2148099999999999 25.1146999999999991
