Cu O  H  O  H  O  H  O  H  O  H  O  H  O  H  O  H  O  H  O  H  O  H  O  H  O  H  O  H  O  H  O  H  O  H  O  H  O  H  O  H  O  H  O  H  O  H  O  H  O  H  O  H  O  H  O  H  O  H  O  H  O  H  O  H  O  H  O  H  O  H  O  H  O  H  O  H  O  H  O  H  O  H  O  H  O  H  O  H  O  H  O  H  O  H  O  H  O  H  O  H 
 1.0000000000000000
    10.1403771778044529    0.0000000000000000    0.0000000000000000
     0.0000000000000000    8.7818242399346058    0.0000000000000000
     0.0000000000000000    0.0000000000000000   30.1311271579000000
 Cu  O   H   O   H   O   H   O   H   O   H   O   H   O   H   O   H   O   H   O   H   O   H   O   H   O   H   O   H   O   H   O   H   O   H   O   H   O   H   O   H   O   H   O   H   O   H   O   H   O   H   O   H   O   H   O   H   O   H   O   H   O   H   O   H   O   H   O   H   O   H   O   H   O   H   O   H   O   H   O   H   O   H   O   H   O   H   O   H   O   H   O   H   O   H   O   H   O   H   O   H  
  96   1   2   1   2   1   2   1   2   1   2   1   2   1   2   1   2   1   2   1   2   1   2   1   2   1   2   1   2   1   2   1   1   1   2   1   2   1   3   1   2   1   2   1   2   1   1   1   2   1   2   1   2   1   2   1   2   1   1   1   2   1   3   1   2   1   2   1   2   1   2   1   2   1   2   1   2   1   2   1   2   1   2   1   4   1   2   1   1   1   2   1   2   1   2   1   2   1   2   1   2
Cartesian
  6.9884100000000000  1.1685200000000000  9.7846100000000007
  9.3047900000000006  1.0797600000000001 10.1285000000000007
  1.6292599999999999  1.0501499999999999  9.9290800000000008
  4.3439399999999999  1.2233799999999999  9.8033599999999996
  8.0279799999999994  3.3606799999999999  9.7599300000000007
  0.4496290000000000  3.3875799999999998  9.8935999999999993
  2.9253000000000000  3.3862600000000000  9.8802800000000008
  5.4382099999999998  3.3232699999999999  9.9157499999999992
  9.2306699999999999  5.4229099999999999  9.9020600000000005
  1.7852900000000000  5.4561299999999999  9.7858800000000006
  4.4319300000000004  5.4598100000000001 10.0048999999999992
  6.7892799999999998  5.4564399999999997  9.9401399999999995
  0.5023900000000000  7.6390399999999996  9.8955500000000001
  3.1115499999999998  7.7000799999999998  9.9331499999999995
  5.7041300000000001  7.6533300000000004  9.8992100000000001
  8.2077299999999997  7.6285800000000004  9.8614899999999999
  5.6237399999999997  1.8666100000000001 12.0871999999999993
  8.0564900000000002  1.8450899999999999 12.0190000000000001
  0.5988080000000000  1.9489900000000000 11.8741000000000003
  3.1013400000000000  1.8010999999999999 11.8191000000000006
  6.8371800000000000  3.9529700000000001 11.9002999999999997
  9.3381900000000009  4.1221399999999999 11.8964999999999996
  1.8175200000000000  4.0788700000000002 11.9449000000000005
  4.3022000000000000  3.8817499999999998 11.9395000000000007
  8.1739499999999996  6.2591900000000003 12.0472999999999999
  0.5220560000000000  6.2224000000000004 12.0164000000000009
  3.0623499999999999  6.1646999999999998 11.9920000000000009
  5.6796499999999996  6.1623200000000002 12.0144000000000002
  9.5469899999999992  8.4530200000000004 11.9502000000000006
  1.9169300000000000  8.3916500000000003 11.9933999999999994
  4.4029400000000001  8.2400099999999998 12.0157000000000007
  7.0184199999999999  8.3977100000000000 11.9368999999999996
  5.7039600000000004  0.3659090000000000 14.0305999999999997
  8.2390600000000003  0.3659090000000000 14.0305999999999997
  0.6337739999999999  0.3659090000000000 14.0305999999999997
  3.1688700000000001  0.3659090000000000 14.0305999999999997
  6.9715100000000003  2.5613700000000001 14.0305999999999997
  9.5066000000000006  2.5613700000000001 14.0305999999999997
  1.9013199999999999  2.5613700000000001 14.0305999999999997
  4.4364200000000000  2.5613700000000001 14.0305999999999997
  8.2390600000000003  4.7568200000000003 14.0305999999999997
  0.6337739999999999  4.7568200000000003 14.0305999999999997
  3.1688700000000001  4.7568200000000003 14.0305999999999997
  5.7039600000000004  4.7568200000000003 14.0305999999999997
  9.5066000000000006  6.9522800000000000 14.0305999999999997
  1.9013199999999999  6.9522800000000000 14.0305999999999997
  4.4364200000000000  6.9522800000000000 14.0305999999999997
  6.9715100000000003  6.9522800000000000 14.0305999999999997
  6.9715100000000003  1.0977300000000001 16.1005000000000003
  9.5066000000000006  1.0977300000000001 16.1005000000000003
  1.9013199999999999  1.0977300000000001 16.1005000000000003
  4.4364200000000000  1.0977300000000001 16.1005000000000003
  8.2390600000000003  3.2931800000000000 16.1005000000000003
  0.6337739999999999  3.2931800000000000 16.1005000000000003
  3.1688700000000001  3.2931800000000000 16.1005000000000003
  5.7039600000000004  3.2931800000000000 16.1005000000000003
  9.5066000000000006  5.4886400000000002 16.1005000000000003
  1.9013199999999999  5.4886400000000002 16.1005000000000003
  4.4364200000000000  5.4886400000000002 16.1005000000000003
  6.9715100000000003  5.4886400000000002 16.1005000000000003
  0.6337739999999999  7.6840999999999999 16.1005000000000003
  3.1688700000000001  7.6840999999999999 16.1005000000000003
  5.7039600000000004  7.6840999999999999 16.1005000000000003
  8.2390600000000003  7.6840999999999999 16.1005000000000003
  5.6490799999999997  1.9193100000000001 18.1748000000000012
  8.0905199999999997  1.9400500000000001 18.1002000000000010
  0.5079370000000000  1.9829800000000000 18.1158999999999999
  3.0677900000000000  1.9973200000000000 18.3270000000000017
  6.8952900000000001  4.1180399999999997 18.1529999999999987
  9.5106400000000004  4.0085300000000004 18.2173000000000016
  1.9322100000000000  4.0858100000000004 18.1594000000000015
  4.4407500000000004  4.1304600000000002 18.1093000000000011
  8.2339699999999993  6.2595900000000002 18.1223999999999990
  0.6278310000000000  6.2785500000000001 18.2395999999999994
  3.1078999999999999  6.4844099999999996 18.1809000000000012
  5.5850900000000001  6.2863899999999999 18.2491999999999983
  9.4008900000000004  8.5213000000000001 18.2168999999999990
  1.7777600000000000  8.6062600000000007 18.2158000000000015
  4.2713000000000001  8.6174700000000009 18.1352000000000011
  6.8950100000000001  8.4543300000000006 18.1693999999999996
  5.5923499999999997  0.5258170000000000 20.2012000000000000
  8.0644200000000001  0.4276370000000000 20.1782000000000004
  0.5742250000000000  0.4713350000000000 20.3451999999999984
  3.1089300000000000  0.3337340000000000 20.2515000000000001
  6.8936400000000004  2.6261199999999998 20.3702000000000005
  9.3471200000000003  2.6497799999999998 20.2262999999999984
  1.7884300000000000  2.6153000000000000 20.1707999999999998
  4.5086300000000001  2.7327599999999999 20.1923999999999992
  8.1260499999999993  4.8626100000000001 20.1311999999999998
  0.5311000000000000  4.8847699999999996 20.2318999999999996
  3.1417899999999999  4.8048599999999997 20.1158999999999999
  5.6584500000000002  4.8623099999999999 20.3358999999999988
  9.2566000000000006  6.9480500000000003 20.2626999999999988
  1.7386999999999999  7.0180800000000003 20.3726999999999983
  4.3615800000000000  6.9598000000000004 20.2971000000000004
  6.9143200000000000  7.1351800000000001 20.3525999999999989
  5.1747699999999996  7.2450000000000001 23.3258000000000010
  5.3995400000000000  8.1015899999999998 23.7442999999999991
  5.0356100000000001  6.7309999999999999 24.1341000000000001
  8.6075700000000008  0.6889750000000000  5.3749900000000004
  7.7273300000000003  1.0768599999999999  5.6398299999999999
  8.8012400000000000 -0.0782989000000000  6.0305700000000000
  2.5698699999999999  6.3829799999999999  3.3185699999999998
  9.6508900000000004  1.4430300000000000 22.5132000000000012
  2.2987099999999998  7.2415200000000004  3.6197200000000000
  3.3521299999999998  0.6954250000000000 27.3229000000000006
  2.4600499999999998  0.9616960000000000 27.0596999999999994
  3.8169599999999999  1.4491799999999999 26.9254999999999995
  4.3471000000000002  3.3850099999999999 26.0976999999999997
  4.7717000000000001  3.0505900000000001 25.3294999999999995
  3.3849200000000002  3.3735599999999999 25.8659999999999997
  5.1750900000000000  8.5507200000000001  4.0060099999999998
  0.9839300000000000  0.8092250000000000  3.5216599999999998
  5.6542000000000003  8.3542500000000004  4.8438200000000000
  6.9860800000000003  2.2235600000000000 28.0330000000000013
  1.6471499999999999  3.8027799999999998  7.5194599999999996
  6.9444400000000002  2.0835499999999998 27.1051000000000002
  0.1224580000000000  1.1233900000000001  3.2511199999999998
  2.0723500000000001  6.5435600000000003 27.5933999999999990
  9.7139500000000005  1.1509300000000000  4.0970899999999997
  3.1297000000000001  3.1322299999999998  1.1204200000000000
  2.2412800000000002  3.1627900000000002  1.4334199999999999
  1.1485700000000001  4.0412600000000003 26.8963000000000001
  1.6063799999999999  3.9200599999999999 26.0591000000000008
  1.1976199999999999  4.5396900000000002 25.4293000000000013
  3.4590600000000000  5.8768700000000003  4.6996000000000002
  2.0021399999999998  6.9703400000000002 26.7181999999999995
  2.9185099999999999  6.8468200000000001 26.3646999999999991
  9.8090499999999992  6.2820099999999996  2.4295300000000002
  9.5330300000000001  2.1844399999999999 29.4917000000000016
  9.8285999999999998  2.5798500000000000  0.2220190000000000
  8.5785400000000003  2.3852500000000001 29.4381999999999984
  2.1764199999999998  4.5816800000000004  7.7555500000000004
  5.7848300000000004  0.2034170000000000  3.3685800000000001
  2.6071100000000000  4.8262900000000002  6.9275399999999996
  6.6012899999999997  0.2646780000000000 29.8577000000000012
  6.4636800000000001  8.1107399999999998 29.6055999999999990
  5.7388399999999997  0.6540319999999999 -0.0233005000000000
 -0.0541518000000000  0.9363590000000001 23.2269000000000005
  7.0851300000000004  1.3532999999999999 28.4741000000000000
  9.3679100000000002  0.7814330000000000 23.9227999999999987
  6.8675699999999997  4.0114999999999998  6.7264699999999999
  7.4979300000000002  4.3235500000000000  5.9601100000000002
  1.4901000000000000  8.2911999999999999  7.0056200000000004
  1.4893799999999999  8.2601800000000001  8.0040499999999994
  0.8296320000000000  7.6340100000000000  6.6794700000000002
  3.9204300000000001  0.7122889999999999  0.0201900000000000
  3.4287299999999998  1.3517200000000000  0.5726860000000000
  3.7381099999999998  0.9708520000000000 29.2448000000000015
  0.4440280000000000  1.2722800000000001 27.0670999999999999
 -0.1287010000000000  1.5388700000000000 27.8977000000000004
  0.3271500000000000  1.9490600000000000 26.4302999999999990
  6.7610400000000004  4.8429000000000002  7.2588100000000004
  3.8458899999999998  5.1872900000000000  5.3053400000000002
  4.6306000000000003  5.5445700000000002  5.6614800000000001
  0.1100970000000000  2.5449799999999998  2.3378399999999999
  0.1510550000000000  3.2361399999999998  1.6629300000000000
  0.0719048000000000  4.1209100000000003  2.0800100000000001
  3.7596599999999998  3.3666600000000000  1.8954899999999999
  6.9418699999999998  1.3732000000000000  2.6717599999999999
  6.6298500000000002  2.2277499999999999  2.2731400000000002
  7.4248200000000004  0.9115710000000000  1.9367399999999999
  0.1346580000000000  5.5648200000000001  2.9198599999999999
  1.0606700000000000  5.8326500000000001  3.0380400000000001
  4.6682899999999998  6.3439600000000000 26.1800999999999995
  4.5133400000000004  5.3878500000000003 25.9726999999999997
  7.2902199999999997  1.2159100000000000 25.0093999999999994
  8.0878399999999999  1.7041900000000001 25.1128999999999998
  9.0183000000000000  6.8749799999999999 27.0822000000000003
  7.8757900000000003  2.4652900000000000 24.6063000000000009
  8.5204699999999995  6.3640299999999996 27.7301000000000002
  5.1063099999999997  6.4243399999999999 27.0550999999999995
  9.1358400000000000  5.5880400000000003 27.8381000000000007
  9.5189599999999999  7.9492799999999999 29.7483000000000004
  9.1910699999999999  7.4791299999999996 28.8980999999999995
  9.5664700000000007  0.1166980000000000 29.5413999999999994
  8.7370500000000000  7.5914500000000000  2.1263000000000001
  9.0764600000000009  8.3977400000000006  2.5501999999999998
 10.0960999999999999  5.5380599999999998 23.7295000000000016
  0.8983020000000000  5.3282600000000002 23.5307999999999993
  4.5135100000000001  2.2719999999999998 22.4477000000000011
  4.0945000000000000  2.0573500000000000 23.3234999999999992
  8.9216899999999999  7.7348499999999998  1.0948899999999999
  3.2865500000000001  2.5899000000000001 23.2372000000000014
  4.8340699999999996  3.6100300000000001  3.1959000000000000
  5.5222600000000002  4.2695800000000004  2.8992100000000001
  4.3991699999999998  4.1273200000000001  3.9300799999999998
  7.1294500000000003  7.3976400000000000  6.2563700000000004
  6.1936600000000004  7.4304500000000004  6.4445100000000002
  4.7131699999999999  6.7146100000000004  1.3728499999999999
  6.1162999999999998  7.7135300000000004  7.3635999999999999
  3.8424999999999998  7.0670799999999998  1.2544700000000000
  3.9944400000000000  7.9339800000000000  0.8582450000000000
  7.4079800000000002  4.6196299999999999 23.9347999999999992
  9.0869999999999997  6.7378600000000004  6.6579300000000003
  9.1415199999999999  5.8711399999999996  6.1101200000000002
  8.8471399999999996  6.3746999999999998  7.5555199999999996
  1.5709800000000000  2.8623900000000000 22.3084999999999987
  1.4585500000000000  3.7490999999999999 22.6585999999999999
  1.0608900000000001  6.8205799999999996 29.4589999999999996
  1.9809300000000001  6.4214599999999997 29.3826000000000001
  3.3736799999999998  0.3212220000000000  7.4531700000000001
  2.6253799999999998  6.7544399999999998 30.0264999999999986
  4.1182800000000004  0.8630570000000000  7.7382900000000001
  0.8663870000000000  2.4055800000000001 22.8334000000000010
  4.5994400000000004  1.3674900000000001  7.0042299999999997
  2.3586000000000000  0.2670860000000000  4.2906700000000004
  3.2820299999999998  0.0638662000000000  4.0097100000000001
  2.2503500000000001  8.9835999999999991  5.2597199999999997
  9.7623599999999993  7.7351799999999997 25.9610999999999983
  1.2497100000000001  6.1341099999999997 23.1381000000000014
  9.0726700000000005  4.9913699999999999  4.2539199999999999
  8.8674300000000006  4.3325500000000003  4.9320100000000000
  6.5853200000000003  6.6545899999999998  2.7629299999999999
  9.6586900000000000  3.7184800000000000  5.0132199999999996
  6.3390399999999998  5.8148499999999999  2.3669500000000001
  9.9686699999999995  8.6668199999999995 26.1952999999999996
  6.9308199999999998  5.8565699999999996  1.5794800000000000
  5.4828400000000004  3.6947000000000001 29.9179999999999993
  4.5312099999999997  3.7890500000000000 29.9739000000000004
  5.6605299999999996  3.2558500000000001 29.0466000000000015
  3.0176500000000002  6.7053000000000003  2.4402100000000000
  4.7616800000000001 -0.0523694000000000 25.7613999999999983
  5.3842800000000004  0.4685020000000000 25.1770999999999994
  0.0222310000000000  3.8164099999999999 28.8159999999999989
  4.7268999999999997  0.8995069999999999 24.5690999999999988
  0.4992720000000000  4.5369500000000000 28.3636000000000017
  1.1192400000000000  4.9471100000000003 29.0337999999999994
  6.8853799999999996  3.8694600000000001 24.0094999999999992
  6.4068500000000004  3.7368700000000001 23.1419999999999995
  0.4975120000000000  7.3272899999999996 25.9752000000000010
  0.5386080000000000  2.5452699999999999  6.5210900000000001
  9.9594100000000001  2.3423799999999999  7.1878000000000002
  0.7708900000000000  1.6544099999999999  6.2049599999999998
  2.3926500000000002  7.9170400000000001 22.9715999999999987
  3.3613300000000002  8.1202299999999994 22.9877000000000002
  1.8923600000000000  8.7719400000000007 23.0460999999999991
  8.5791199999999996  6.5739400000000003 23.5977999999999994
  8.4120500000000007  6.9195399999999996 22.6817999999999991
  9.0820299999999996  7.2249900000000000 24.0629999999999988
  5.9456199999999999  6.3538699999999997 28.6260000000000012
  5.8584899999999998  5.5737899999999998 29.1955999999999989
  6.8982900000000003  6.2645999999999997 28.2168999999999990
  5.9634600000000004  1.8874000000000000  5.6487400000000001
  6.0698100000000004  2.8379300000000001  5.9125699999999997
  5.6895800000000003  1.8794100000000000  4.7310200000000000
