Cu O  H  O  H  O  H  O  H  O  H  O  H  O  H  O  H  O  H  O  H  O  H  O  H  O  H  O  H  O  H  O  H  O  H  O  H  O  H  O  H  O  H  O  H  O  H  O  H  O  H  O  H  O  H  O  H  O  H  O  H  O  H  O  H  O  H  O  H  O  H  O  H  O  H  O  H  O  H  O  H  O  H  O  H  O  H  O  H  O  H  O  H  O  H  O  H  O  H  O  H 
 1.0000000000000000
    10.1403771778044529    0.0000000000000000    0.0000000000000000
     0.0000000000000000    8.7818242399346058    0.0000000000000000
     0.0000000000000000    0.0000000000000000   30.1311271579000000
 Cu  O   H   O   H   O   H   O   H   O   H   O   H   O   H   O   H   O   H   O   H   O   H   O   H   O   H   O   H   O   H   O   H   O   H   O   H   O   H   O   H   O   H   O   H   O   H   O   H   O   H   O   H   O   H   O   H   O   H   O   H   O   H   O   H   O   H   O   H   O   H   O   H   O   H   O   H   O   H   O   H   O   H   O   H   O   H   O   H   O   H   O   H   O   H   O   H   O   H   O   H  
  96   1   2   1   2   1   2   1   2   1   2   1   2   1   2   1   2   1   2   1   2   1   2   1   2   1   2   1   2   1   2   1   1   1   2   1   2   1   3   1   2   1   2   1   2   1   1   1   2   1   2   1   2   1   2   1   2   1   1   1   2   1   3   1   2   1   2   1   2   1   2   1   2   1   2   1   2   1   2   1   2   1   2   1   4   1   2   1   1   1   2   1   2   1   2   1   2   1   2   1   2
Cartesian
  6.9333799999999997  1.2387300000000001  9.9410000000000007
  9.3762100000000004  1.1255999999999999  9.9655199999999997
  1.9392700000000000  1.2661300000000000  9.9929900000000007
  4.4356400000000002  1.3346300000000000  9.9255899999999997
  8.3131100000000000  3.4867100000000000  9.9181699999999999
  0.6543580000000000  3.4408599999999998  9.8861200000000000
  3.1762100000000002  3.4401899999999999  9.8446599999999993
  5.5255999999999998  3.5177200000000002 10.0557999999999996
  9.4737299999999998  5.6543700000000001 10.0396000000000001
  1.8587300000000000  5.7561299999999997  9.7122799999999998
  4.4785399999999997  5.6730799999999997 10.0492000000000008
  6.9208200000000000  5.4182800000000002  9.8982399999999995
  0.6877480000000000  7.8688500000000001  9.9371100000000006
  3.1749999999999998  7.7783100000000003  9.9027200000000004
  5.6737399999999996  7.7790699999999999  9.9280399999999993
  8.3097799999999999  7.8595499999999996  9.8885000000000005
  5.7302099999999996  1.8232200000000001 11.9665999999999997
  8.2025600000000001  1.9066500000000000 12.0502000000000002
  0.6780720000000000  1.9160500000000000 11.9271999999999991
  3.0956100000000002  1.9833900000000000 11.8880999999999997
  6.9739399999999998  4.0940200000000004 12.0418000000000003
  9.4851299999999998  4.0167000000000002 11.8872000000000000
  1.9668699999999999  4.1680099999999998 11.9751999999999992
  4.4150799999999997  4.1740700000000004 12.0959000000000003
  8.1626499999999993  6.3531599999999999 12.0142000000000007
  0.6234970000000000  6.3371599999999999 11.9270999999999994
  3.0551300000000001  6.2263599999999997 12.0031999999999996
  5.6304999999999996  6.2416299999999998 11.9400999999999993
  9.6493900000000004  8.5207200000000007 11.9631000000000007
  2.0936499999999998  8.5683100000000003 11.8978000000000002
  4.4726499999999998  8.5743399999999994 11.8374000000000006
  6.9064300000000003  8.5051100000000002 11.8071000000000002
  5.7039600000000004  0.3659090000000000 14.0305999999999997
  8.2390600000000003  0.3659090000000000 14.0305999999999997
  0.6337739999999999  0.3659090000000000 14.0305999999999997
  3.1688700000000001  0.3659090000000000 14.0305999999999997
  6.9715100000000003  2.5613700000000001 14.0305999999999997
  9.5066000000000006  2.5613700000000001 14.0305999999999997
  1.9013199999999999  2.5613700000000001 14.0305999999999997
  4.4364200000000000  2.5613700000000001 14.0305999999999997
  8.2390600000000003  4.7568200000000003 14.0305999999999997
  0.6337739999999999  4.7568200000000003 14.0305999999999997
  3.1688700000000001  4.7568200000000003 14.0305999999999997
  5.7039600000000004  4.7568200000000003 14.0305999999999997
  9.5066000000000006  6.9522800000000000 14.0305999999999997
  1.9013199999999999  6.9522800000000000 14.0305999999999997
  4.4364200000000000  6.9522800000000000 14.0305999999999997
  6.9715100000000003  6.9522800000000000 14.0305999999999997
  6.9715100000000003  1.0977300000000001 16.1005000000000003
  9.5066000000000006  1.0977300000000001 16.1005000000000003
  1.9013199999999999  1.0977300000000001 16.1005000000000003
  4.4364200000000000  1.0977300000000001 16.1005000000000003
  8.2390600000000003  3.2931800000000000 16.1005000000000003
  0.6337739999999999  3.2931800000000000 16.1005000000000003
  3.1688700000000001  3.2931800000000000 16.1005000000000003
  5.7039600000000004  3.2931800000000000 16.1005000000000003
  9.5066000000000006  5.4886400000000002 16.1005000000000003
  1.9013199999999999  5.4886400000000002 16.1005000000000003
  4.4364200000000000  5.4886400000000002 16.1005000000000003
  6.9715100000000003  5.4886400000000002 16.1005000000000003
  0.6337739999999999  7.6840999999999999 16.1005000000000003
  3.1688700000000001  7.6840999999999999 16.1005000000000003
  5.7039600000000004  7.6840999999999999 16.1005000000000003
  8.2390600000000003  7.6840999999999999 16.1005000000000003
  5.7230499999999997  1.7768200000000001 18.2086000000000006
  8.2347500000000000  1.8480600000000000 18.1480999999999995
  0.6760180000000000  1.8795500000000001 18.1208999999999989
  3.2544000000000000  1.9672700000000001 18.1880999999999986
  6.9113199999999999  4.0973400000000000 18.1892999999999994
  9.4333899999999993  4.0249899999999998 18.1619999999999990
  1.8526199999999999  4.0055199999999997 18.1121000000000016
  4.4257400000000002  4.0953400000000002 18.1672000000000011
  8.1403499999999998  6.1360999999999999 18.1950000000000003
  0.6044610000000000  6.3587199999999999 18.1951999999999998
  3.0821000000000001  6.1490600000000004 18.2011000000000003
  5.5347499999999998  6.3471299999999999 18.1938999999999993
  9.3291599999999999  8.4410200000000000 18.1876999999999995
  1.8101000000000000  8.4041099999999993 18.1936000000000000
  4.4153599999999997  8.4203600000000005 18.1679999999999993
  7.0209900000000003  8.4036799999999996 18.1400000000000006
  5.7471300000000003  0.2851910000000000 20.2655999999999992
  8.3263800000000003  0.4051860000000000 20.2663000000000011
  0.6486000000000000  0.3701690000000000 20.2144000000000013
  3.0751599999999999  0.3102930000000000 20.1587999999999994
  7.0223699999999996  2.5562200000000002 20.1361999999999988
  9.5292100000000008  2.7538700000000000 20.2071000000000005
  1.8466800000000001  2.4996900000000002 20.1058999999999983
  4.5528899999999997  2.5712999999999999 20.2628999999999984
  8.3038600000000002  4.6534599999999999 20.1533000000000015
  0.6381670000000000  4.8382300000000003 20.2250000000000014
  3.1610299999999998  4.8037200000000002 20.3543999999999983
  5.6850899999999998  4.7591799999999997 20.2426999999999992
  9.5077499999999997  6.9493299999999998 20.3248999999999995
  1.7625400000000000  7.0371699999999997 20.2285000000000004
  4.4713399999999996  6.9465800000000000 20.1773999999999987
  7.1113499999999998  7.0241800000000003 20.1229000000000013
  8.2978299999999994  7.4800199999999997  3.9064100000000002
  7.3203800000000001  7.3707500000000001  4.2316700000000003
  7.9775900000000002  7.7039400000000002  3.0376300000000001
  4.0770200000000001  7.8600599999999998  0.5388610000000000
  4.2892299999999999  7.6762699999999997 29.7145000000000010
  3.1838700000000002  7.5266200000000003  0.5591080000000000
  2.5885699999999998  2.4852799999999999 27.3962000000000003
  9.6463099999999997  5.1591300000000002  0.8221619999999999
  2.8523299999999998  2.8080900000000000 28.3105000000000011
  0.4727860000000000  3.5259000000000000 23.4948000000000015
  0.5834700000000000  3.9594499999999999 24.3572999999999986
  1.3053900000000001  3.6913900000000002 23.0127999999999986
  1.7143800000000000  0.1468050000000000 23.5106999999999999
  1.6759400000000000  0.9002200000000000 23.0012000000000008
  1.6532500000000001  0.4895770000000000 24.4013999999999989
  1.5202000000000000  0.5507210000000000  1.9003000000000001
  5.5401400000000001  1.9840300000000000 26.7442999999999991
  0.7134570000000000  0.6595700000000000  2.5010500000000002
  9.7195199999999993  7.5695199999999998 26.2255000000000003
  7.6352599999999997  1.8539900000000000  6.8884999999999996
  9.3271499999999996  6.8833900000000003 26.8227000000000011
  5.0311899999999996  2.8251300000000001 26.4910999999999994
  8.9263999999999992  2.3887499999999999 23.0396000000000001
  4.0860399999999997  2.6703800000000002 26.6968999999999994
  5.8755100000000002  7.4766800000000000 23.6035000000000004
  6.1839300000000001  7.8386399999999998 22.7085000000000008
  3.9820500000000001  6.8882300000000001  4.7274300000000000
  3.1712799999999999  6.7551500000000004  5.2918900000000004
  3.0819600000000000  7.6378800000000000  5.7371100000000004
  1.1851900000000000  5.4152500000000003  5.6501799999999998
  8.0652699999999999  2.3946000000000001 23.5041000000000011
  7.3662000000000001  2.3853499999999999 22.8344999999999985
  5.6062200000000004  8.7416999999999998 27.7192000000000007
  8.7689400000000006  4.7517699999999996  3.3621400000000001
  8.9577000000000009  5.7056100000000001  3.3270300000000002
  7.9666800000000002  4.6141600000000000  3.9642400000000002
  6.7415300000000000  1.4759199999999999  6.6825200000000002
  1.0691700000000000  0.8564280000000000  0.9973790000000000
  6.1650900000000002  2.2753299999999999  6.6459799999999998
  8.6141900000000007  5.6569000000000003 27.8293999999999997
  7.6825000000000001  5.5057900000000002 27.7058000000000000
  8.7597799999999992  5.7575700000000003 28.7850000000000001
  9.0312099999999997  5.7749899999999998  0.3704930000000000
  8.9556799999999992  8.0359800000000003 25.7633000000000010
  8.2033199999999997  5.8326599999999997  0.8302060000000000
  5.7763900000000001  6.8621999999999996  4.3760599999999998
  6.0077999999999996  6.2231899999999998  5.1303700000000001
  3.8447700000000000  4.6526100000000001  6.8542300000000003
  3.7818600000000000  4.4210799999999999  7.8124900000000004
  3.6618100000000000  5.6148999999999996  6.6557199999999996
  3.1237499999999998  3.5970499999999999 29.6985999999999990
  3.6662900000000000  2.9808500000000002  0.0621883000000000
  3.8088400000000000  4.2467600000000001 29.3819000000000017
  2.9932900000000000  4.3888100000000003 22.4613000000000014
  3.3405300000000002  5.1181799999999997 23.0339999999999989
  3.4581599999999999  3.5974900000000001 22.8504000000000005
  5.7292199999999998  6.3287399999999998  3.5194000000000001
  0.7004560000000000  4.6428900000000004  5.4266199999999998
  0.2686190000000000  5.0145400000000002  4.6445699999999999
  5.4035799999999998  4.1332100000000001 27.5562000000000005
  5.7404299999999999  4.7618499999999999 28.2637000000000000
  6.1558099999999998  4.2678500000000001 29.0028000000000006
  6.3586299999999998  6.6280099999999997 23.5101000000000013
  4.8054199999999998  7.2430199999999996 28.2467000000000006
  4.0708700000000002  7.0751700000000000 27.6042999999999985
  5.1519500000000003  6.3579800000000004 28.3836000000000013
  6.2827700000000002  0.6248000000000000 27.5886999999999993
  6.7251200000000004  0.5039110000000000 26.6748000000000012
  0.6514710000000000  1.3870499999999999 29.7279000000000018
  1.0621799999999999  1.0962400000000001 28.9265000000000008
  0.7551290000000001  6.9359999999999999 29.9283999999999999
  1.6693600000000000  6.8539700000000003 29.6750000000000007
  7.5720799999999997  4.5724400000000003  6.3684399999999997
  1.8132699999999999  7.6222300000000001 29.1158999999999999
  6.7416299999999998  4.9016700000000002  5.9944100000000002
  9.8494499999999992  1.3740300000000001 29.5639000000000003
  6.0063000000000004  4.5132199999999996  6.4633500000000002
  0.8885030000000000  4.3957199999999998  1.5753500000000000
  1.3991000000000000  5.1718000000000002  1.9373400000000001
  1.4407399999999999  4.1176199999999996  0.8032830000000000
 10.1110000000000007  1.0620600000000000  6.6969099999999999
  9.9702500000000001  1.9175800000000001  7.1684900000000003
  2.3609599999999999  0.3723660000000000  7.4688900000000000
  3.0871100000000000  0.1351660000000000  6.8425000000000002
  7.8213100000000004  0.9367650000000000 24.6478000000000002
  7.5136799999999999  0.1570500000000000 25.0926000000000009
  9.7424599999999995  1.0642400000000001  5.8225699999999998
  6.9977600000000004  8.3214299999999994 24.4614000000000011
  2.7163300000000001  2.4473600000000002  3.1123200000000000
  2.2769400000000002  3.1609500000000001  2.7326000000000001
  2.1977099999999998  1.6331500000000001  2.6547200000000002
  9.6678400000000000  4.3002799999999999  6.7853399999999997
  8.9487799999999993  3.9990999999999999  7.3612599999999997
  2.3597299999999999  6.8573500000000003  3.5900500000000002
  8.9596699999999991  4.7786099999999996  7.9747500000000002
  1.8283000000000000  6.7141999999999999  2.7643900000000001
  1.7456100000000001  7.6380600000000003  2.3752200000000001
  7.0684699999999996  3.0912099999999998  0.4205870000000000
  7.8077600000000000  5.1969799999999999 23.4253000000000000
  8.6364400000000003  5.2459899999999999 22.8657000000000004
  7.7317999999999998  4.2644599999999997 23.6586999999999996
  2.9191199999999999  6.3860299999999999 26.6859999999999999
  3.3956499999999998  6.5167999999999999 25.8238999999999983
  5.0212100000000000  6.1919000000000004  1.3550500000000001
  5.6588399999999996  5.8037099999999997  1.9466500000000000
  0.1851740000000000  4.7986700000000004 26.8693999999999988
  6.1320600000000001  5.1053800000000003  1.4229400000000001
  0.7690010000000000  4.3287699999999996 26.2831000000000010
  2.3760900000000000  7.1700900000000001 26.7601000000000013
  1.3152200000000001  5.0470400000000000 25.9509000000000007
  4.4673600000000002  1.7627800000000000  1.1531400000000001
  4.2672100000000004  0.8079210000000000  0.9786330000000000
  4.0765500000000001  2.0755699999999999  2.0177999999999998
  5.4893299999999998  7.7742199999999997  7.8369799999999996
  3.4954700000000001  1.1020600000000000  6.6067000000000000
  7.8008699999999997  0.5160630000000000  0.2349270000000000
  8.1021800000000006  1.2765500000000001 29.8051999999999992
  9.4695699999999992  8.5732300000000006  3.8970899999999999
  7.6091600000000001  1.2091400000000001 29.0087000000000010
  9.9921199999999999  0.5905170000000000  4.0154500000000004
  5.9505900000000000  8.6176700000000004  7.5147500000000003
  9.4713100000000008  1.3110100000000000  3.4839500000000001
  4.7969600000000003  2.3742200000000002 23.7852999999999994
  5.2096400000000003  2.6315000000000000 24.6384000000000007
  5.0339600000000004  1.4510600000000000 23.5528000000000013
  2.0305200000000001  3.2206899999999998 27.1330999999999989
  3.3876800000000000  2.3748300000000002  4.7541799999999999
  3.9795699999999998  2.3212600000000001  5.5055100000000001
  7.9128400000000001  7.5070800000000002  6.9404100000000000
  3.8292899999999999  3.2521300000000002  5.8542800000000002
  8.3127399999999998  7.9167800000000002  7.6919899999999997
  8.8797200000000007  8.6223200000000002  7.3186700000000000
  6.3425700000000003  3.6372800000000001  0.6590850000000000
  5.6675000000000004  2.9693200000000002  1.0124000000000000
  4.6067299999999998  7.8959500000000000  7.4624199999999998
  8.3361699999999992  2.0417200000000002  2.6303899999999998
  7.5063300000000002  2.0632700000000002  3.0682299999999998
  8.6904199999999996  2.9083000000000001  2.7780100000000001
  7.2479300000000002  8.2605599999999999  1.6676700000000000
  6.5234300000000003  7.6922100000000002  1.4108400000000001
  6.7762799999999999  0.2397330000000000  2.0805400000000001
  3.2888899999999999  6.5176299999999996 23.8420999999999985
  2.6988799999999999  7.0614299999999997 23.2665000000000006
  4.1545800000000002  6.8479400000000004 23.6442000000000014
  1.5435900000000000  8.6981800000000007 27.6311000000000000
  1.9523900000000001  0.7614379999999999 27.3298999999999985
  0.9481309999999999  8.2954799999999995 26.9098000000000006
  6.0658700000000003  1.3347000000000000  3.7718200000000000
  5.2820700000000000  1.8133500000000000  4.1639499999999998
  6.2395600000000000  0.6801670000000000  4.4201600000000001
