Cu O  H  O  H  O  H  O  H  O  H  O  H  O  H  O  H  O  H  O  H  O  H  O  H  O  H  O  H  O  H  O  H  O  H  O  H  O  H  O  H  O  H  O  H  O  H  O  H  O  H  O  H  O  H  O  H  O  H  O  H  O  H  O  H  O  H  O  H  O  H  O  H  O  H  O  H  O  H  O  H  O  H  O  H  O  H  O  H  O  H  O  H  O  H  O  H  O  H  O  H 
 1.0000000000000000
    10.1403771778044529    0.0000000000000000    0.0000000000000000
     0.0000000000000000    8.7818242399346058    0.0000000000000000
     0.0000000000000000    0.0000000000000000   30.1311271579000000
 Cu  O   H   O   H   O   H   O   H   O   H   O   H   O   H   O   H   O   H   O   H   O   H   O   H   O   H   O   H   O   H   O   H   O   H   O   H   O   H   O   H   O   H   O   H   O   H   O   H   O   H   O   H   O   H   O   H   O   H   O   H   O   H   O   H   O   H   O   H   O   H   O   H   O   H   O   H   O   H   O   H   O   H   O   H   O   H   O   H   O   H   O   H   O   H   O   H   O   H   O   H  
  96   1   2   1   2   1   2   1   2   1   2   1   2   1   2   1   2   1   2   1   2   1   2   1   2   1   2   1   2   1   2   1   1   1   2   1   2   1   3   1   2   1   2   1   2   1   1   1   2   1   2   1   2   1   2   1   2   1   1   1   2   1   3   1   2   1   2   1   2   1   2   1   2   1   2   1   2   1   2   1   2   1   2   1   4   1   2   1   1   1   2   1   2   1   2   1   2   1   2   1   2
Cartesian
  6.9846500000000002  1.1565500000000000 10.0277999999999992
  9.4869599999999998  1.2632600000000000 10.0571999999999999
  1.7849600000000001  1.1273700000000000  9.8530999999999995
  4.4085599999999996  1.1086300000000000  9.8695900000000005
  8.1639199999999992  3.4069600000000002  9.9961699999999993
  0.6345340000000000  3.3900999999999999  9.8236600000000003
  3.0688300000000002  3.3873300000000000  9.9050799999999999
  5.7952899999999996  3.3197999999999999  9.9686100000000000
  9.4264600000000005  5.5338399999999996  9.9695999999999998
  1.8817999999999999  5.5663999999999998 10.0693999999999999
  4.3662299999999998  5.5403399999999996  9.8844700000000003
  6.9202700000000004  5.6109299999999998  9.8661300000000001
  0.7534840000000000  7.5603499999999997  9.7762600000000006
  3.1296900000000001  7.7230900000000000  9.9909400000000002
  5.6469300000000002  7.8441400000000003 10.0546000000000006
  8.1950500000000002  7.6453300000000004  9.9212000000000007
  5.6928700000000001  1.8054100000000000 11.8979999999999997
  8.1673299999999998  1.9304800000000000 12.0165000000000006
  0.5859480000000000  1.9656499999999999 12.0520999999999994
  3.0896900000000000  1.8917999999999999 11.9446999999999992
  6.9048200000000000  4.1220800000000004 11.9672000000000001
  9.5066299999999995  4.1126199999999997 11.9978999999999996
  1.8679699999999999  4.1110600000000002 11.9982000000000006
  4.4749699999999999  3.8864200000000002 11.9771000000000001
  8.1706000000000003  6.1948900000000000 11.9842999999999993
  0.5023310000000000  6.3708400000000003 11.9297000000000004
  3.2576499999999999  6.2264499999999998 12.0564000000000000
  5.6619400000000004  6.2550999999999997 11.9149999999999991
  9.4977199999999993  8.4305500000000002 11.8125000000000000
  1.8921600000000001  8.4913500000000006 11.9655000000000005
  4.4080500000000002  8.3947599999999998 12.1339000000000006
  7.0885400000000001  8.4510600000000000 12.0481999999999996
  5.7039600000000004  0.3659090000000000 14.0305999999999997
  8.2390600000000003  0.3659090000000000 14.0305999999999997
  0.6337739999999999  0.3659090000000000 14.0305999999999997
  3.1688700000000001  0.3659090000000000 14.0305999999999997
  6.9715100000000003  2.5613700000000001 14.0305999999999997
  9.5066000000000006  2.5613700000000001 14.0305999999999997
  1.9013199999999999  2.5613700000000001 14.0305999999999997
  4.4364200000000000  2.5613700000000001 14.0305999999999997
  8.2390600000000003  4.7568200000000003 14.0305999999999997
  0.6337739999999999  4.7568200000000003 14.0305999999999997
  3.1688700000000001  4.7568200000000003 14.0305999999999997
  5.7039600000000004  4.7568200000000003 14.0305999999999997
  9.5066000000000006  6.9522800000000000 14.0305999999999997
  1.9013199999999999  6.9522800000000000 14.0305999999999997
  4.4364200000000000  6.9522800000000000 14.0305999999999997
  6.9715100000000003  6.9522800000000000 14.0305999999999997
  6.9715100000000003  1.0977300000000001 16.1005000000000003
  9.5066000000000006  1.0977300000000001 16.1005000000000003
  1.9013199999999999  1.0977300000000001 16.1005000000000003
  4.4364200000000000  1.0977300000000001 16.1005000000000003
  8.2390600000000003  3.2931800000000000 16.1005000000000003
  0.6337739999999999  3.2931800000000000 16.1005000000000003
  3.1688700000000001  3.2931800000000000 16.1005000000000003
  5.7039600000000004  3.2931800000000000 16.1005000000000003
  9.5066000000000006  5.4886400000000002 16.1005000000000003
  1.9013199999999999  5.4886400000000002 16.1005000000000003
  4.4364200000000000  5.4886400000000002 16.1005000000000003
  6.9715100000000003  5.4886400000000002 16.1005000000000003
  0.6337739999999999  7.6840999999999999 16.1005000000000003
  3.1688700000000001  7.6840999999999999 16.1005000000000003
  5.7039600000000004  7.6840999999999999 16.1005000000000003
  8.2390600000000003  7.6840999999999999 16.1005000000000003
  5.7851100000000004  1.9071899999999999 18.0872999999999990
  8.3748699999999996  1.6562699999999999 18.2042999999999999
  0.6730900000000000  1.7856700000000001 18.1414000000000009
  3.0891000000000002  1.8592200000000001 18.1771999999999991
  6.8820399999999999  4.0699500000000004 18.2089999999999996
  9.6255000000000006  4.0062499999999996 18.2049999999999983
  1.9855799999999999  4.0547300000000002 18.0691999999999986
  4.4540199999999999  4.0468099999999998 18.0397999999999996
  8.1883300000000006  6.1838800000000003 18.1736000000000004
  0.6833960000000000  6.2029500000000004 18.2163000000000004
  3.1443400000000001  6.1195700000000004 18.1556999999999995
  5.7121300000000002  6.2432900000000000 18.3670000000000009
  9.5808800000000005  8.3574000000000002 18.1295000000000002
  1.8784700000000001  8.5463000000000005 18.1026999999999987
  4.4407699999999997  8.4566900000000000 18.2455999999999996
  6.9563300000000003  8.3677899999999994 18.1116999999999990
  5.7125700000000004  0.3400090000000000 20.1738999999999997
  8.3967500000000008  0.4027050000000000 20.1964000000000006
  0.6018380000000000  0.3272850000000000 20.0943000000000005
  3.1575799999999998  0.2968670000000000 20.2228999999999992
  6.9125500000000004  2.6408900000000002 20.1976000000000013
  9.4383400000000002  2.6086800000000001 20.3206999999999987
  1.7621400000000000  2.5951700000000000 20.2273999999999994
  4.2840900000000000  2.6628200000000000 20.0787000000000013
  8.3277000000000001  4.7991099999999998 20.1295999999999999
  0.6979220000000000  4.7528499999999996 20.0903999999999989
  3.0463000000000000  4.7955899999999998 20.2935000000000016
  5.4774599999999998  4.7806800000000003 20.4612000000000016
  9.4023199999999996  6.9069500000000001 20.3303000000000011
  1.8207500000000001  6.8754999999999997 20.2709000000000010
  4.3100300000000002  6.9819899999999997 20.2865000000000002
  6.8604500000000002  6.9710299999999998 20.6045000000000016
  9.4204000000000008  0.4693090000000000  4.3203600000000000
  9.8832699999999996  1.3249700000000000  4.3333100000000000
  8.5306599999999992  0.7011390000000000  3.9119899999999999
  4.4935999999999998  2.0993100000000000 25.1912999999999982
  4.7939499999999997  1.5569599999999999 24.4681999999999995
  4.1091600000000001  1.3809199999999999 25.7030999999999992
  3.4545400000000002  5.0224399999999996 27.3705999999999996
  2.2219899999999999  8.8441500000000008 26.8292999999999999
  4.1021099999999997  5.5308900000000003 27.9299999999999997
  6.5894700000000004  8.6914400000000001 23.7885999999999989
  6.6931300000000000  0.0591652000000000 24.7377000000000002
  7.2617200000000004  0.4750350000000000 23.3938999999999986
  7.6936999999999998  6.4375999999999998 25.1109000000000009
  8.5294000000000008  6.1559299999999997 24.7825999999999986
  7.5422099999999999  7.3048200000000003 24.6912999999999982
  5.9984000000000002  4.7938799999999997 22.5135000000000005
  1.8237399999999999  5.6928900000000002 27.8281999999999989
  6.8585599999999998  4.5606099999999996 22.9091999999999985
  7.1247199999999999  0.5697780000000000 26.3081999999999994
  3.1958799999999998  4.8275399999999999  1.1014900000000001
  7.3395700000000001 -0.1116970000000000 26.9569000000000010
  1.0020800000000001  6.1098999999999997 28.0532000000000004
  2.8008299999999999  1.7708400000000000 27.7741000000000007
  0.8842590000000000  6.7813400000000001 27.3120000000000012
  0.9308630000000000  2.1830599999999998  1.1621800000000000
  0.6720360000000000  1.2789600000000001  1.0368800000000000
  5.4883300000000004  3.8956700000000000  5.7417199999999999
  6.0887500000000001  3.3124699999999998  5.2470900000000000
  5.3903299999999996  2.6757000000000000  4.9116499999999998
  7.7910800000000000  2.6750099999999999 26.2287999999999997
  2.5266000000000002  2.5669400000000002 28.2103999999999999
  2.8811800000000001  3.3721800000000002 27.7226999999999997
  0.3991120000000000  0.5074700000000000 25.5899999999999999
  5.0209599999999996  3.9355300000000000  1.9818300000000000
  5.8024600000000000  4.4912599999999996  1.8284800000000001
  4.9813599999999996  3.8370899999999999  2.9089399999999999
  2.3850400000000000  5.3251700000000000  1.2035300000000000
  5.8139099999999999  5.6921400000000002 22.8004999999999995
  2.6784599999999998  6.0845099999999999  1.6672000000000000
  7.2755700000000001  5.4307200000000000  1.1248700000000000
  7.0450799999999996  6.0520300000000002  1.7987299999999999
  8.2029300000000003  5.2219600000000002  1.4005600000000000
  3.2521800000000001  0.1409420000000000 26.9351999999999983
  6.4282199999999996  1.0716300000000001 26.6949000000000005
  3.5051299999999999  8.3793100000000003 27.7027999999999999
  9.0307200000000005  4.5100199999999999 28.2779999999999987
  9.1344499999999993  4.0102300000000000 29.0691999999999986
  8.4028200000000002  2.6593499999999999 30.1611000000000011
  8.0241299999999995  2.5826799999999999  0.9653630000000000
  7.5289500000000000  2.7836200000000000 29.6099999999999994
  9.7963600000000000  6.6113999999999997  3.5489899999999999
  0.3162530000000000  6.4403400000000000  2.9095200000000001
  9.7381100000000007  7.5798699999999997  3.7289099999999999
  9.9620800000000003  6.0375199999999998 23.5547000000000004
 10.1831999999999994  6.4622700000000002 22.7215999999999987
  0.6788760000000000  6.1783200000000003 24.1296999999999997
  9.8230000000000004  5.1149300000000002 28.1485999999999983
  7.7952199999999996  3.5730700000000000 26.0185999999999993
  8.2965900000000001  3.9424000000000001 26.7649000000000008
  0.0032628900000000  3.7284000000000002  1.1736800000000001
 10.0078999999999994  4.6744399999999997  1.3854800000000000
  0.7899190000000000  5.0304300000000000  1.3686700000000001
  1.9108400000000001  2.2527200000000001  1.0525199999999999
  8.7215000000000007  1.5272800000000000 22.7030999999999992
  8.4441199999999998  2.3584800000000001 23.0272000000000006
  9.6303199999999993  1.4439800000000000 23.1139000000000010
  0.4379910000000000  8.7218099999999996 26.3545000000000016
  0.1841730000000000  0.5693030000000000 27.0759000000000007
  7.2580900000000002  6.9238799999999996 27.8475999999999999
  7.2750500000000002  6.5799599999999998 26.8930000000000007
  8.9240999999999993  4.4572000000000003  4.2338600000000000
  9.2105099999999993  3.7400899999999999  3.6441699999999999
  6.6661700000000002  2.4806599999999999  2.6607599999999998
  9.6237600000000008  4.1841400000000002  2.8946000000000001
  7.5090899999999996  2.0677599999999998  2.8274300000000001
  7.5465999999999998  6.1354300000000004 28.3171999999999997
  8.0481700000000007  2.8001700000000000  3.2616100000000001
  2.2596300000000000  0.2688340000000000  5.0315500000000002
  2.5097700000000001  8.4742099999999994  5.7635300000000003
  1.5249600000000001  0.8475490000000000  5.3008899999999999
  3.9483600000000001  7.6030199999999999  6.5971500000000001
  3.8460500000000000  7.6541300000000003  7.5499000000000001
  7.4814699999999998  3.0619700000000001  6.1738400000000002
  8.2882200000000008  3.2290999999999999  6.6961700000000004
  4.9935099999999997  4.0296099999999999 25.0870999999999995
  5.2748699999999999  4.8745900000000004 25.4113000000000007
  4.6112099999999998  8.2613000000000003  6.4024500000000000
  6.1806099999999997  4.8881800000000002 25.6055999999999990
  3.7555100000000001  2.3342600000000000  4.3688000000000002
  3.3363399999999999  1.4758700000000000  4.6251499999999997
  3.0849899999999999  2.9965999999999999  4.5791899999999996
  6.3003099999999996  4.4991199999999996 29.1832999999999991
  6.2847799999999996  3.7778499999999999 28.5096999999999987
  4.5732200000000001  7.1155900000000001 29.5485000000000007
  5.3967499999999999  3.4507599999999998 28.3037999999999990
  4.7005900000000000  7.0451100000000002 28.5704999999999991
  5.6610100000000001  7.0286600000000004 28.3957000000000015
  9.7180999999999997  5.9753900000000000  5.2285500000000003
  1.0044800000000000  1.2980000000000000 24.0757000000000012
  1.7060500000000001  1.9844900000000001 23.8728000000000016
  1.4974799999999999  0.4218370000000000 23.8874999999999993
  2.1980000000000000  6.2250800000000002 24.6438999999999986
  2.6914799999999999  6.9091699999999996 24.2162000000000006
  6.1965700000000004 -0.0619318000000000  7.3868000000000000
  6.2581300000000004  0.1548730000000000  6.5105199999999996
  3.1463600000000000  3.3407499999999999 22.9223999999999997
  6.7874200000000000  0.9490280000000000  6.5836800000000002
  2.3978799999999998  3.7182800000000000 23.4200000000000017
  2.5644800000000001  5.4251899999999997 24.2260999999999989
  1.7494200000000000  3.9007900000000002 22.7132000000000005
  3.6206200000000002  1.7427999999999999  0.5391170000000000
  3.3069000000000002  2.1212300000000002 29.8673000000000002
  4.2144899999999996  2.2449200000000000  1.0404700000000000
  4.2853000000000003  4.7187500000000000  6.6177700000000002
  7.9784300000000004  3.1451899999999999  7.6048700000000000
  9.6720600000000001  1.5725100000000001 29.2927000000000000
  0.0604426000000000  1.2471300000000001 28.6012999999999984
  9.7214500000000008  2.1311300000000002  6.7115400000000003
  0.8219590000000000  1.8721399999999999 28.5288000000000004
  0.5094360000000000  1.7342900000000001  6.7817999999999996
  4.1392800000000003  5.6757600000000004  6.4673900000000000
  1.0866600000000000  2.5099800000000001  6.8039199999999997
  1.8395500000000000  8.3289500000000007 29.9843000000000011
  1.7278600000000000  7.4225899999999996 29.5832000000000015
  1.1330700000000000  0.1530110000000000 29.4881999999999991
  4.0026599999999997  4.9622700000000002 26.5598999999999990
  6.0099600000000004  7.5429700000000004  2.5098300000000000
  6.3933099999999996  6.9989900000000000  3.2166000000000001
  1.1245000000000001  4.6109299999999998  6.0745300000000002
  7.1947400000000004  7.3877699999999997  3.4702000000000002
  1.8537500000000000  3.9046799999999999  5.9183500000000002
  2.6505999999999998  4.1955900000000002  6.3854800000000003
  9.6868800000000004  5.7243700000000004  6.1452499999999999
  9.1015300000000003  4.9523500000000000  6.2709000000000001
  4.7111000000000001  4.8067799999999998  7.5117200000000004
  2.1712099999999999  7.8116000000000003  2.4269799999999999
  1.9700000000000000  8.1571400000000001  1.5528000000000000
  1.7832300000000001  8.2592999999999996  3.1804000000000001
  3.8276200000000000  8.4788999999999994 23.2353999999999985
  3.6454000000000000  8.3479899999999994 22.3161999999999985
  4.7907500000000001  8.4827499999999993 23.3048999999999999
  4.8345799999999999  7.9366500000000002  1.0416900000000000
  4.2862700000000000  7.6965000000000003  1.8362499999999999
  4.5323500000000001  0.0564927000000000  0.8422570000000000
  8.2938100000000006  4.1170600000000004 23.5039000000000016
  9.1090499999999999  4.6503800000000002 23.5958000000000006
  7.9672499999999999  3.9727600000000001 24.4171000000000014
  0.7118480000000000  7.8405199999999997  7.7245999999999997
  0.4081580000000000 -0.1008390000000000  7.3848700000000003
 10.4774999999999991  7.1212999999999997  7.2303800000000003
