Cu O  H  O  H  O  H  O  H  O  H  O  H  O  H  O  H  O  H  O  H  O  H  O  H  O  H  O  H  O  H  O  H  O  H  O  H  O  H  O  H  O  H  O  H  O  H  O  H  O  H  O  H  O  H  O  H  O  H  O  H  O  H  O  H  O  H  O  H  O  H  O  H  O  H  O  H  O  H  O  H  O  H  O  H  O  H  O  H  O  H  O  H  O  H  O  H  O  H  O  H 
 1.0000000000000000
    10.1403771778044529    0.0000000000000000    0.0000000000000000
     0.0000000000000000    8.7818242399346058    0.0000000000000000
     0.0000000000000000    0.0000000000000000   30.1311271579000000
 Cu  O   H   O   H   O   H   O   H   O   H   O   H   O   H   O   H   O   H   O   H   O   H   O   H   O   H   O   H   O   H   O   H   O   H   O   H   O   H   O   H   O   H   O   H   O   H   O   H   O   H   O   H   O   H   O   H   O   H   O   H   O   H   O   H   O   H   O   H   O   H   O   H   O   H   O   H   O   H   O   H   O   H   O   H   O   H   O   H   O   H   O   H   O   H   O   H   O   H   O   H  
  96   1   2   1   2   1   2   1   2   1   2   1   2   1   2   1   2   1   2   1   2   1   2   1   2   1   2   1   2   1   2   1   1   1   2   1   2   1   3   1   2   1   2   1   2   1   1   1   2   1   2   1   2   1   2   1   2   1   1   1   2   1   3   1   2   1   2   1   2   1   2   1   2   1   2   1   2   1   2   1   2   1   2   1   4   1   2   1   1   1   2   1   2   1   2   1   2   1   2   1   2
Cartesian
  7.0369299999999999  1.1852799999999999  9.7989300000000004
  9.6644400000000008  1.2575300000000000  9.8991699999999998
  1.9373700000000000  1.0597600000000000  9.9712800000000001
  4.4546799999999998  1.2256000000000000  9.9127200000000002
  8.2020900000000001  3.4259100000000000  9.8540600000000005
  0.7280360000000000  3.3311099999999998  9.9350699999999996
  3.1718000000000002  3.3821500000000002  9.9132999999999996
  5.6719799999999996  3.4858199999999999  9.9910300000000003
  9.4968800000000009  5.4661000000000000  9.8614400000000000
  2.0189100000000000  5.6386900000000004  9.8868100000000005
  4.4166800000000004  5.5721100000000003  9.9748699999999992
  6.9857100000000001  5.4605899999999998  9.9364200000000000
  0.7133800000000000  7.7093999999999996  9.9161900000000003
  3.2692999999999999  7.7678799999999999  9.8790899999999997
  5.7967599999999999  7.7158800000000003  9.9561799999999998
  8.5072700000000001  7.7911400000000004  9.7402200000000008
  5.6475999999999997  1.8642300000000001 11.9513999999999996
  8.2490799999999993  1.9234400000000000 11.8893000000000004
  0.6124970000000000  1.8375800000000000 12.0580999999999996
  3.2044500000000000  1.8635100000000000 12.0614000000000008
  6.9466799999999997  4.1053400000000000 12.0839999999999996
  9.5728899999999992  4.0724900000000002 11.9895999999999994
  1.9076500000000001  4.1441800000000004 11.9839000000000002
  4.3982400000000004  4.1038199999999998 11.9587000000000003
  8.3140999999999998  6.3236400000000001 11.9902999999999995
  0.5989300000000000  6.2473999999999998 11.8556000000000008
  3.0675100000000000  6.2972299999999999 12.0015999999999998
  5.6369699999999998  6.2939900000000000 12.0908999999999995
  9.5242100000000001  8.5312300000000008 11.9024000000000001
  1.9963000000000000  8.3503200000000000 11.9153000000000002
  4.3602600000000002  8.5049899999999994 11.9443999999999999
  6.9448400000000001  8.5244900000000001 11.8003000000000000
  5.7039600000000004  0.3659090000000000 14.0305999999999997
  8.2390600000000003  0.3659090000000000 14.0305999999999997
  0.6337739999999999  0.3659090000000000 14.0305999999999997
  3.1688700000000001  0.3659090000000000 14.0305999999999997
  6.9715100000000003  2.5613700000000001 14.0305999999999997
  9.5066000000000006  2.5613700000000001 14.0305999999999997
  1.9013199999999999  2.5613700000000001 14.0305999999999997
  4.4364200000000000  2.5613700000000001 14.0305999999999997
  8.2390600000000003  4.7568200000000003 14.0305999999999997
  0.6337739999999999  4.7568200000000003 14.0305999999999997
  3.1688700000000001  4.7568200000000003 14.0305999999999997
  5.7039600000000004  4.7568200000000003 14.0305999999999997
  9.5066000000000006  6.9522800000000000 14.0305999999999997
  1.9013199999999999  6.9522800000000000 14.0305999999999997
  4.4364200000000000  6.9522800000000000 14.0305999999999997
  6.9715100000000003  6.9522800000000000 14.0305999999999997
  6.9715100000000003  1.0977300000000001 16.1005000000000003
  9.5066000000000006  1.0977300000000001 16.1005000000000003
  1.9013199999999999  1.0977300000000001 16.1005000000000003
  4.4364200000000000  1.0977300000000001 16.1005000000000003
  8.2390600000000003  3.2931800000000000 16.1005000000000003
  0.6337739999999999  3.2931800000000000 16.1005000000000003
  3.1688700000000001  3.2931800000000000 16.1005000000000003
  5.7039600000000004  3.2931800000000000 16.1005000000000003
  9.5066000000000006  5.4886400000000002 16.1005000000000003
  1.9013199999999999  5.4886400000000002 16.1005000000000003
  4.4364200000000000  5.4886400000000002 16.1005000000000003
  6.9715100000000003  5.4886400000000002 16.1005000000000003
  0.6337739999999999  7.6840999999999999 16.1005000000000003
  3.1688700000000001  7.6840999999999999 16.1005000000000003
  5.7039600000000004  7.6840999999999999 16.1005000000000003
  8.2390600000000003  7.6840999999999999 16.1005000000000003
  5.6589299999999998  1.8489899999999999 18.0979999999999990
  8.2898200000000006  1.8361300000000000 18.2239000000000004
  0.6194530000000000  1.9178999999999999 18.2307999999999986
  3.1896399999999998  1.9471000000000001 18.3121000000000009
  6.9659700000000004  4.0741500000000004 18.1752000000000002
  9.3711500000000001  3.9292300000000000 18.1205999999999996
  1.8600300000000001  4.1034100000000002 18.3047000000000004
  4.4983800000000000  3.9883999999999999 18.2857999999999983
  8.3295700000000004  6.2557499999999999 18.2098000000000013
  0.7476600000000000  6.2153499999999999 18.2188000000000017
  3.1733699999999998  6.2519799999999996 18.1312999999999995
  5.7649100000000004  6.2145099999999998 18.1256999999999984
  9.5567700000000002  8.4573499999999999 18.1442000000000014
  1.9505699999999999  8.4203499999999991 18.1778000000000013
  4.4527000000000001  8.3612800000000007 18.0988000000000007
  7.0499099999999997  8.5777199999999993 18.1350000000000016
  5.8061299999999996  0.3939530000000000 20.1022999999999996
  8.2264700000000008  0.4503620000000000 20.2841999999999985
  0.5998410000000000  0.3104370000000000 20.1029000000000018
  3.2404600000000001  0.4910780000000000 20.3044000000000011
  6.9647500000000004  2.6511200000000001 20.1091000000000015
  9.5919699999999999  2.6467200000000002 20.2683000000000000
  1.8419200000000000  2.4326099999999999 20.3060000000000009
  4.4596200000000001  2.5627300000000002 20.4168999999999983
  8.1378400000000006  4.8109999999999999 20.3252999999999986
  0.5729160000000000  4.8787200000000004 20.3688000000000002
  2.9886699999999999  4.6924999999999999 20.2234000000000016
  5.6237899999999996  4.8344800000000001 20.3202999999999996
  9.3674400000000002  7.0645400000000000 20.2836999999999996
  2.0276999999999998  6.9945199999999996 20.1982999999999997
  4.3667400000000001  6.8282200000000000 20.2058999999999997
  6.8830000000000000  6.9304899999999998 20.2637999999999998
  3.9922900000000001  4.5558699999999996 24.1979000000000006
  3.2757900000000002  5.1271699999999996 24.0206000000000017
  4.8496199999999998  5.0246800000000000 24.3129999999999988
  6.9782299999999999  8.5367200000000008 28.4562999999999988
  6.2736099999999997  7.9199900000000003 28.2229999999999990
  6.5108699999999997  0.5433990000000000 28.8475999999999999
  5.1053499999999996  4.6471499999999999 28.4861000000000004
  3.1050100000000000  4.2187700000000001 25.8040999999999983
  5.3085599999999999  3.6833600000000000 28.2380999999999993
  6.6344099999999999  7.5247999999999999  0.9507660000000000
  6.7853599999999998  7.8370100000000003  0.0358032000000000
  7.1235900000000001  6.7110099999999999  1.0473200000000000
  0.8640900000000000  7.1853300000000004 26.3609000000000009
  1.6288499999999999  7.6532000000000000 26.7537999999999982
  0.5208770000000000  6.4749999999999996 27.0057000000000009
  8.2966499999999996  2.2150599999999998  3.1455899999999999
  2.0006599999999999  1.6270000000000000  1.0102300000000000
  8.0892999999999997  1.3395999999999999  3.5076999999999998
  5.1867599999999996  0.2101500000000000 24.2460999999999984
  3.6547000000000001  8.1438799999999993  5.9923099999999998
  5.0111699999999999  0.9775890000000000 24.9318999999999988
  2.5589300000000001  2.1015799999999998  0.2667720000000000
  4.5773400000000004  3.2941600000000002 23.1581000000000010
  1.9356100000000001  2.4439000000000002 29.7383999999999986
  0.0776350000000000  2.5620699999999998 23.4510000000000005
  0.9343650000000000  2.7865099999999998 23.0474999999999994
  8.3426700000000000  8.4487100000000002  4.6556199999999999
  7.4555400000000001  8.6233699999999995  4.2876200000000004
  6.7854200000000002 -0.0354402000000000  4.9969799999999998
  5.6529299999999996  5.8712200000000001  7.8565399999999999
  4.8508399999999998  2.5359300000000000 22.5381000000000000
  5.0808600000000004  1.7423700000000000 23.0832000000000015
  7.0764600000000000  3.6275300000000001 26.8550000000000004
  0.2387270000000000  4.5162500000000003  6.4045500000000004
  0.5452780000000000  3.9892400000000001  7.1797199999999997
  0.5490390000000001  4.1338600000000003  5.5749000000000004
  3.0364800000000001  7.6273400000000002  6.4546900000000003
  7.4342499999999996  2.5813400000000000  2.8069299999999999
  3.2926099999999998  7.6249599999999997  7.4085900000000002
  4.7439000000000000  0.5048070000000000  5.2452300000000003
  4.5631300000000001  0.5616719999999999  4.2687700000000000
  4.2994700000000003  1.2592300000000001  5.6411800000000003
  2.9190299999999998  4.0335500000000000 26.7537999999999982
  4.2302999999999997  8.7529400000000006 23.9024000000000001
  1.9836100000000001  3.9132799999999999 26.8099999999999987
  1.7529600000000001  5.6386300000000000  3.2728799999999998
  1.1323500000000000  4.8966700000000003  3.2250000000000001
  0.3047170000000000  7.0089399999999999  7.0518200000000002
  0.4584740000000000  5.9757300000000004  6.9264599999999996
  0.9707340000000000  7.1507600000000000  7.7369000000000003
  8.6441800000000004  5.1012700000000004  1.5144599999999999
  8.0476100000000006  5.4099599999999999  2.2462900000000001
  9.5477000000000007  5.5859300000000003  1.6596000000000000
  2.4597300000000000  0.0956941000000000 23.0821000000000005
  1.5826199999999999  0.0043224300000000 23.4435000000000002
  2.2322500000000001  8.8905399999999997 22.1467999999999989
  2.4560399999999998  5.5501800000000001  3.9887700000000001
  5.9104900000000002  6.2400500000000001  7.0061700000000000
  6.5396599999999996  6.9234600000000004  7.4082600000000003
  9.3196499999999993  2.6864100000000000 29.0406000000000013
 10.1579999999999995  3.0630700000000002 28.6251999999999995
  0.1920770000000000  2.4057700000000000 27.9454999999999991
  0.0981661000000000  1.6771700000000000 23.8804000000000016
  9.5696899999999996  5.6334000000000000 28.0951999999999984
  9.5272000000000006  4.6891400000000001 28.4009999999999998
  8.6800300000000004  5.7588200000000001 27.6573999999999991
  6.9964800000000000  2.7194799999999999 27.2181999999999995
  7.8553600000000001  2.2648799999999998 26.9982000000000006
  3.3136600000000000  8.0339899999999993 27.4293000000000013
  3.6121400000000001  8.0315100000000008 28.3326999999999991
  6.7663500000000001  5.9754399999999999 26.0248999999999988
  6.9690300000000001  5.5618600000000002 26.9065000000000012
  4.6611900000000004  5.4673499999999997  4.4904000000000002
  6.0493800000000002  5.4210700000000003 27.2073000000000000
  3.9971299999999998  5.2211999999999996  5.1661500000000000
  3.6728299999999998  0.1546280000000000 27.1338000000000008
  4.0799799999999999  5.9568300000000001  5.8272500000000003
  3.9938300000000000  2.7069399999999999  6.4020700000000001
  3.0621200000000002  2.6120800000000002  6.7130099999999997
  4.0386400000000000  3.6875300000000002  6.1293800000000003
  0.0855953000000000  7.9092000000000002  4.5930700000000000
 10.1700999999999997  7.6168899999999997  5.5535699999999997
  8.7744999999999997  7.7217799999999999  7.1635400000000002
  7.9160700000000004  7.9952300000000003  7.5575200000000002
  1.1062000000000001  2.7488000000000001  3.5320499999999999
  0.4610600000000000  3.3917299999999999  3.9062700000000001
  0.6157010000000001  7.2376100000000001  4.1080800000000002
  9.8202900000000000  2.9195899999999999  3.8702200000000002
  0.9230969999999999  7.5925500000000001 29.3546000000000014
  1.7441700000000000  7.2644599999999997 29.7534999999999989
  0.4551020000000000  6.8716200000000001 28.8989000000000011
 10.0107999999999997  8.1039100000000008  0.7243309999999999
  9.6841100000000004  8.5409400000000009  1.5699799999999999
  8.1704000000000008  1.4034300000000000  1.0320100000000001
  9.0473300000000005  7.9224600000000001  1.8672500000000001
  7.7747900000000003  2.0861399999999999  0.4668830000000000
  7.9204200000000000  2.9910600000000001  0.8018500000000000
  9.5120600000000000  5.5575400000000004 22.3856000000000002
  7.7694099999999997  8.0398099999999992 23.1271999999999984
  6.8091299999999997  8.2858499999999999 23.3444000000000003
  7.7450999999999999  8.1933399999999992 22.1585000000000001
  9.0189699999999995  1.0654900000000000 27.0929000000000002
  9.3885100000000001  0.8375170000000000 26.1929000000000016
  5.9316399999999998  2.1732999999999998 30.0423000000000009
  5.2105499999999996  1.8719200000000000 29.4602000000000004
  1.6829400000000001  6.3690499999999997 24.9574999999999996
  4.4048499999999997  1.9380999999999999 30.0244000000000000
  1.8112600000000001  5.7539400000000001 24.2380999999999993
  8.4016900000000003  0.2973900000000000 27.2662000000000013
  0.8717670000000000  5.6703799999999998 23.8565000000000005
  7.3181799999999999  4.3486500000000001  5.7276600000000002
  7.0158800000000001  4.9362100000000000  6.4173900000000001
  8.2785700000000002  4.3198600000000003  5.9213699999999996
  9.8090899999999994  0.0430031000000000 24.5316000000000010
  7.7949700000000002  0.1583680000000000  7.3989599999999998
  5.8381200000000000  3.6816900000000001  3.5181000000000000
  5.3312099999999996  2.9976799999999999  3.0298799999999999
  5.9949800000000000  1.8444499999999999  6.9345999999999997
  4.7594099999999999  3.5736200000000000  2.3963600000000000
  6.9495800000000001  1.7654700000000001  6.8525299999999998
  0.0075308200000000  8.1466100000000008 25.1716000000000015
  7.2293099999999999  2.6599599999999999  6.4976799999999999
  1.5662600000000000  1.0704800000000001  2.4161299999999999
  0.6712580000000000  0.5988440000000000  2.4006300000000000
  2.1074299999999999  0.4030190000000000  2.7098300000000002
  4.1574400000000002  4.5865600000000004 28.3739999999999988
  3.1995100000000001  4.9060600000000001  2.1699000000000002
  3.6356299999999999  4.3844099999999999  1.4426099999999999
  1.6594500000000001  0.4390930000000000  6.4489400000000003
  3.0081600000000002  3.6646500000000000  1.1999200000000001
  1.4296300000000000  1.2476200000000000  6.0173600000000000
  0.8607620000000000  0.8354980000000000  5.3558100000000000
  8.9743700000000004  5.3121400000000003 23.1743999999999986
  9.0876800000000006  4.3953199999999999 23.2908000000000008
  8.9613399999999999  8.5514299999999999 24.0306999999999995
  4.6616299999999997  0.4815150000000000  2.4201299999999999
  4.9890299999999996  1.3630599999999999  2.5025900000000001
  5.3643099999999997  8.7335300000000000  2.1016900000000001
  3.6395400000000002  7.2580099999999996  0.0642943000000000
  3.9303699999999999  6.3753099999999998  0.3398800000000000
  3.8871799999999999  7.8653700000000004  0.8068200000000000
  6.1791499999999999  6.2574100000000001 24.2889000000000017
  5.8891700000000000  7.1964399999999999 24.4653999999999989
  6.9870999999999999  6.3334200000000003 23.7807999999999993
  6.7367400000000002  6.2043100000000004  3.4080400000000002
  6.9031900000000004  7.1388800000000003  3.7627600000000001
  7.0933000000000002  5.7334899999999998  4.1719999999999997
  4.9519200000000003  1.7193000000000001 26.2718999999999987
  4.2315100000000001  2.3665799999999999 26.2146000000000008
  5.8369900000000001  2.1990500000000002 26.6735000000000007
