Cu  O  H  O  H  O  H  O  H  O  H  O  H  O  H  O  H  O  H  O  H  O  H  O  H  O  H  O  H  O  H  O  H  O  H  O  H  O  H  O  H  O  H  O  H  O  H  O  H  O  H  O  H  O  H  O  H  O  H  O  H  O  H  O  H  O  H  O  H  O  H  O  H  O  H  O  H  O  H  O  H  O  H  O  H  O  H  O  H  O  H  O  H  O  H  O  H  O  H  O  H 
 1.0000000000000000
    10.1403771778044529    0.0000000000000000    0.0000000000000000
     0.0000000000000000    8.7818242399346058    0.0000000000000000
     0.0000000000000000    0.0000000000000000   30.1311271579000000
 Cu  O   H   O   H   O   H   O   H   O   H   O   H   O   H   O   H   O   H   O   H   O   H   O   H   O   H   O   H   O   H   O   H   O   H   O   H   O   H   O   H   O   H   O   H   O   H   O   H   O   H   O   H   O   H   O   H   O   H   O   H   O   H   O   H   O   H   O   H   O   H   O   H   O   H   O   H   O   H   O   H   O   H   O   H   O   H   O   H   O   H   O   H   O   H   O   H   O   H   O   H  
  96   1   2   1   2   1   2   1   2   1   2   1   2   1   2   1   2   1   2   1   2   1   2   1   2   1   2   1   2   1   2   1   1   1   2   1   2   1   3   1   2   1   2   1   2   1   1   1   2   1   2   1   2   1   2   1   2   1   1   1   2   1   3   1   2   1   2   1   2   1   2   1   2   1   2   1   2   1   2   1   2   1   2   1   4   1   2   1   1   1   2   1   2   1   2   1   2   1   2   1   2
Cartesian
  6.9794200000000002  1.0008600000000001  9.8485099999999992
  9.4889799999999997  1.1898200000000001  9.8010999999999999
  1.9224500000000000  1.2514000000000001  9.8520699999999994
  4.3738900000000003  1.0793299999999999  9.8338999999999999
  8.3167600000000004  3.2595399999999999  9.8978300000000008
  0.6463540000000000  3.3230300000000002  9.7807099999999991
  3.1658800000000000  3.2517200000000002  9.8693299999999997
  5.6351899999999997  3.3784200000000002  9.6532300000000006
  9.5828699999999998  5.4904200000000003  9.9392999999999994
  1.9036999999999999  5.5502599999999997  9.9645799999999998
  4.4647699999999997  5.5376799999999999 10.0183000000000000
  6.9600200000000001  5.5003900000000003  9.9421300000000006
  0.6405780000000000  7.9511500000000002  9.8612099999999998
  3.2006500000000000  7.6896199999999997 10.0140999999999991
  5.6465399999999999  7.7169400000000001  9.7867499999999996
  8.3228299999999997  7.6443599999999998  9.8349700000000002
  5.7587700000000002  1.8661300000000001 11.8842999999999996
  8.2135899999999999  1.8028900000000001 11.9802999999999997
  0.5639560000000000  1.8561099999999999 11.9305000000000003
  3.0826199999999999  1.8033300000000001 11.9799000000000007
  7.0251599999999996  4.0839200000000000 12.0731000000000002
  9.5227900000000005  4.0955700000000004 11.8754000000000008
  1.9387200000000000  3.9916700000000001 11.9655000000000005
  4.4306700000000001  3.9947300000000001 12.0465999999999998
  8.2768899999999999  6.3273900000000003 12.0535999999999994
  0.6400840000000000  6.2449899999999996 11.9024000000000001
  3.1633599999999999  6.1660399999999997 12.0101999999999993
  5.7934599999999996  6.1980399999999998 11.9847999999999999
  9.4393499999999992  8.5180299999999995 11.8903999999999996
  1.9379999999999999  8.5254899999999996 11.9612999999999996
  4.4405400000000004  8.4534300000000009 11.9525000000000006
  6.9756400000000003  8.4282800000000009 11.9212000000000007
  5.7039600000000004  0.3659090000000000 14.0305999999999997
  8.2390600000000003  0.3659090000000000 14.0305999999999997
  0.6337739999999999  0.3659090000000000 14.0305999999999997
  3.1688700000000001  0.3659090000000000 14.0305999999999997
  6.9715100000000003  2.5613700000000001 14.0305999999999997
  9.5066000000000006  2.5613700000000001 14.0305999999999997
  1.9013199999999999  2.5613700000000001 14.0305999999999997
  4.4364200000000000  2.5613700000000001 14.0305999999999997
  8.2390600000000003  4.7568200000000003 14.0305999999999997
  0.6337739999999999  4.7568200000000003 14.0305999999999997
  3.1688700000000001  4.7568200000000003 14.0305999999999997
  5.7039600000000004  4.7568200000000003 14.0305999999999997
  9.5066000000000006  6.9522800000000000 14.0305999999999997
  1.9013199999999999  6.9522800000000000 14.0305999999999997
  4.4364200000000000  6.9522800000000000 14.0305999999999997
  6.9715100000000003  6.9522800000000000 14.0305999999999997
  6.9715100000000003  1.0977300000000001 16.1005000000000003
  9.5066000000000006  1.0977300000000001 16.1005000000000003
  1.9013199999999999  1.0977300000000001 16.1005000000000003
  4.4364200000000000  1.0977300000000001 16.1005000000000003
  8.2390600000000003  3.2931800000000000 16.1005000000000003
  0.6337739999999999  3.2931800000000000 16.1005000000000003
  3.1688700000000001  3.2931800000000000 16.1005000000000003
  5.7039600000000004  3.2931800000000000 16.1005000000000003
  9.5066000000000006  5.4886400000000002 16.1005000000000003
  1.9013199999999999  5.4886400000000002 16.1005000000000003
  4.4364200000000000  5.4886400000000002 16.1005000000000003
  6.9715100000000003  5.4886400000000002 16.1005000000000003
  0.6337739999999999  7.6840999999999999 16.1005000000000003
  3.1688700000000001  7.6840999999999999 16.1005000000000003
  5.7039600000000004  7.6840999999999999 16.1005000000000003
  8.2390600000000003  7.6840999999999999 16.1005000000000003
  5.7760699999999998  1.6663200000000000 18.1353000000000009
  8.3163099999999996  1.7347699999999999 18.2945999999999991
  0.6265440000000000  1.7840499999999999 18.1962000000000010
  3.1485699999999999  1.9018900000000001 18.0684000000000005
  6.9770599999999998  3.9932300000000001 18.2302999999999997
  9.6056399999999993  3.9806200000000000 18.2406000000000006
  1.9065200000000000  4.0067199999999996 18.1206999999999994
  4.4878499999999999  3.9766100000000000 18.0701999999999998
  8.3535799999999991  6.1010999999999997 18.2769000000000013
  0.6593240000000000  6.3592800000000000 18.2426999999999992
  3.1326900000000002  6.2658300000000002 18.1686000000000014
  5.7345800000000002  6.1649700000000003 18.3194000000000017
  9.5243599999999997  8.4032300000000006 18.2423000000000002
  1.8986000000000001  8.4953599999999998 18.0905999999999985
  4.4889700000000001  8.3100100000000001 18.1580000000000013
  7.0996499999999996  8.3281500000000008 18.1834999999999987
  5.9002200000000000  0.3861930000000000 20.1787999999999990
  8.3022899999999993  0.2956090000000000 20.4368000000000016
  0.6707770000000000  0.3185050000000000 20.3775000000000013
  3.1934200000000001  0.3806610000000000 20.1907999999999994
  6.9257499999999999  2.6061899999999998 20.3134000000000015
  9.6002200000000002  2.4205899999999998 20.3419999999999987
  1.9944900000000001  2.5304799999999998 20.1250000000000000
  4.6105299999999998  2.4690300000000001 20.0709000000000017
  8.2780199999999997  4.6355300000000002 20.3558999999999983
  0.6462780000000000  4.7298700000000000 20.1570999999999998
  3.2377600000000002  4.6716800000000003 20.0751999999999988
  5.7289300000000001  4.6634300000000000 20.2105999999999995
  9.5396199999999993  6.8899100000000004 20.2358000000000011
  1.9085399999999999  6.9020700000000001 20.2703999999999986
  4.4839900000000004  6.9583700000000004 20.2666000000000004
  6.9608699999999999  6.8994900000000001 20.3567999999999998
  7.1723299999999997  1.9938199999999999 29.9639999999999986
  6.5877299999999996  2.1078199999999998 29.2116000000000007
  8.0091000000000001  2.4549699999999999 29.6483999999999988
  1.7632200000000000  3.1935500000000001 25.8104000000000013
  1.5161100000000001  2.8949699999999998 24.9310000000000009
  2.6975099999999999  3.3595899999999999 25.7906000000000013
  9.6776000000000000  6.5646000000000004  2.9525399999999999
  9.7893799999999995  6.5049400000000004 27.0690999999999988
 10.1672999999999991  6.8041999999999998  3.7641900000000001
  6.2583700000000002  5.9512700000000001 27.9505000000000017
  6.9362599999999999  6.3743299999999996 28.4164999999999992
  6.6755000000000004  5.1743199999999998 27.5609999999999999
  7.4162900000000000  7.9733200000000002 24.1246000000000009
  6.6306500000000002  7.9458399999999996 23.6231000000000009
  7.9471299999999996  7.2494800000000001 23.7761999999999993
  6.7253699999999998  4.5977300000000003  1.5647700000000000
  6.0534999999999997  0.7693870000000000 27.2659999999999982
  6.3031300000000003  4.4361400000000000  0.7097220000000000
  2.8870800000000001  5.5889400000000000  6.7303499999999996
  3.5449700000000002  4.9217899999999997 29.4303999999999988
  3.2298300000000002  5.1375700000000002  7.5005800000000002
  5.3191300000000004  1.2733099999999999 27.8070999999999984
  0.9859850000000000  3.1099999999999999 22.3272000000000013
  4.7979099999999999  0.6254750000000000 28.2499000000000002
  3.8317500000000000  7.0314899999999998 27.2360000000000007
  3.5032100000000002  6.7476000000000003 26.3296999999999990
  3.4702299999999999  4.2499099999999999 22.7954000000000008
  3.5314199999999998  4.1573700000000002 23.7005000000000017
  3.4915099999999999  3.1225100000000001 23.7792999999999992
  3.3497400000000002  1.4248000000000001  1.7224100000000000
  0.6065000000000000  3.0427700000000000 23.2271999999999998
  9.8358000000000008  2.5778799999999999 23.1661999999999999
  7.6897900000000003  0.9112380000000000 23.5291999999999994
  2.8518900000000000  1.3527300000000000 23.7125999999999983
  3.6719900000000001  0.8179140000000000 23.6916000000000011
  2.7175400000000001  1.5359499999999999 22.7662000000000013
  4.1975600000000002  4.2379800000000003 29.2410999999999994
  7.2325799999999996  3.7813200000000000  1.5933800000000000
  4.3494299999999999  4.1527200000000004 28.2734999999999985
  8.0544200000000004  1.0509200000000001  5.4232300000000002
  8.8128499999999992  0.7946450000000000  6.0539399999999999
  7.7317600000000004  0.2301230000000000  4.9698000000000002
  9.7755799999999997  7.4662300000000004 27.0284000000000013
  3.1136100000000000  6.5363499999999997  6.7732999999999999
 10.0603999999999996  7.5586599999999997 26.0472000000000001
  0.8057410000000000  7.2382000000000000  5.2498399999999998
 -0.0940840000000000  7.3101599999999998  5.7269699999999997
  8.0812299999999997  1.2855700000000001 26.9378999999999991
  7.7808900000000003  2.1166999999999998 26.5505999999999993
  8.1603899999999996  0.5748080000000000 26.2711000000000006
  5.8272000000000004  7.9703299999999997  7.1426600000000002
  6.1388100000000003  8.8125300000000006  7.6924900000000003
  6.7423200000000003  7.6844700000000001  6.7175099999999999
  5.9376100000000003  2.3584999999999998  6.5148599999999997
  5.6846399999999999  2.1177299999999999  7.3813800000000001
  6.7568599999999996  1.8971700000000000  6.2073999999999998
  1.2130200000000000  8.1404899999999998  5.2369300000000001
  3.9813100000000001  1.3891899999999999  0.9924400000000000
  3.9033799999999998  2.2503600000000001  0.6012690000000001
  4.5765099999999999  8.7599699999999991  0.0998362000000000
  4.7968299999999999  8.0229199999999992 29.6784999999999997
  5.7734199999999998  7.9859700000000000 29.5247999999999990
  4.6723699999999999  6.5382699999999998 27.4889000000000010
  8.5387900000000005  4.5039699999999998  5.9117899999999999
  7.6257299999999999  4.2108299999999996  5.7871400000000000
  9.0114999999999998  3.7023600000000001  6.1736599999999999
  8.0465699999999991  1.8476699999999999 23.3336000000000006
  7.8696599999999997  2.0196200000000002 22.4002000000000017
  1.5988500000000001  1.9818199999999999 28.3874999999999993
  1.6780100000000000  2.2260800000000001 27.4414000000000016
  4.5802800000000001  7.6008199999999997 23.6275000000000013
  5.0381400000000003  8.3763699999999996 23.2740000000000009
  2.7170800000000002  0.6260390000000000  6.2249600000000003
  4.8876799999999996  8.2636800000000008 22.2166999999999994
  2.1589700000000001  1.2725800000000000  5.5128399999999997
  1.6742800000000000  1.0321300000000000 28.4400000000000013
  2.7883900000000001  1.9294500000000001  5.1466099999999999
  9.5568799999999996  5.6522199999999998 23.2997000000000014
  9.2860499999999995  5.7693199999999996 22.3561000000000014
  9.9174900000000008  4.7015200000000004 23.2814000000000014
  6.4102399999999999  3.8595299999999999 24.0364000000000004
  6.9422300000000003  3.0413299999999999 23.7028999999999996
  1.1253700000000000  7.7584900000000001 27.8289000000000009
  1.8694500000000001  8.0483700000000002 28.4251000000000005
  1.7252900000000000  1.4132300000000000  3.4678700000000000
  1.8772899999999999  1.6549900000000000  2.5200999999999998
  5.7911000000000001  4.1166900000000002 23.4026999999999994
  1.1354299999999999  1.1656500000000001  2.1511000000000000
  4.5157999999999996  2.7391899999999998  4.0897300000000003
  4.5435299999999996  1.7505599999999999  3.6939199999999999
  5.0856599999999998  2.5601099999999999  4.8668899999999997
  8.5523000000000007  4.2830800000000000 26.6873000000000005
  7.6350199999999999  3.9432999999999998 26.5787000000000013
  3.5710000000000002  6.7454599999999996  0.2508840000000000
  7.3876999999999997  4.0699199999999998 25.6494000000000000
  2.6669600000000000  6.3240200000000000  0.0564808000000000
  2.2353299999999998  6.9761199999999999 29.5503999999999998
  4.8898599999999997  3.8619100000000000 25.4760999999999989
  0.4878580000000000  7.5213700000000001 24.5320000000000000
  0.5954030000000000  8.4241399999999995 24.1938999999999993
 -0.0271109000000000  6.8830400000000003 23.9021000000000008
 10.0459999999999994  0.0032036900000000  1.4415500000000001
  9.8448499999999992  8.6763300000000001  0.4905660000000000
  5.5380200000000004  0.2775190000000000  3.2396500000000001
  4.7109199999999998  0.4184910000000000  3.6628699999999998
  2.3405800000000001  4.7284499999999996  4.7953999999999999
  4.0260100000000003  8.6353899999999992  3.2443800000000000
  2.5242599999999999  4.5155700000000003  3.8782199999999998
  9.7584900000000001  7.9527500000000000  1.8857500000000000
  3.2244799999999998  3.8067400000000000  3.9960300000000002
  5.6702100000000000  5.4220699999999997  4.6884199999999998
  5.4524200000000000  4.6883299999999997  4.0740200000000000
  4.9964399999999998  5.4106199999999998  5.3497899999999996
 10.1166000000000000  2.3855100000000000  6.7450200000000002
  2.7341899999999999  7.6353700000000000 27.9359999999999999
  8.4162800000000004  7.1936099999999996  7.5069100000000004
  8.6027400000000007  7.0717400000000001  6.5502300000000000
  2.3420800000000002  7.1955299999999998  2.0026400000000000
  8.4225200000000005  6.1336300000000001  6.4612100000000003
  2.6240700000000001  7.3908300000000002  2.9028800000000001
  0.3313270000000000  2.2022400000000002  7.6869699999999996
  2.8855700000000000  6.4901700000000000  3.2327499999999998
  3.2099199999999999  8.5197199999999995  7.0326599999999999
  4.1405300000000000  8.5836500000000004  7.1209499999999997
  2.9415300000000002  8.6509999999999998  8.0578500000000002
  9.8827400000000001  5.5495599999999996  2.6869000000000001
  7.6853699999999998  0.2004920000000000 29.1555999999999997
  8.1781699999999997  8.1371599999999997 29.0994999999999990
  2.2381899999999999  6.9374799999999999 24.4569000000000010
  8.8350000000000009  8.1943099999999998 28.3629999999999995
  3.0856300000000001  6.5327799999999998 24.8318000000000012
  3.0580300000000000  5.6090299999999997 24.4863999999999997
  4.3562200000000004  3.5413000000000001 26.1859000000000002
  4.8146899999999997  2.7686600000000001 26.5963999999999992
  0.7056410000000000  2.0878500000000000  6.2053399999999996
  7.1995100000000001  7.6942199999999996  3.9735399999999998
  6.7021400000000000  6.9465199999999996  4.2654500000000004
  8.0167300000000008  7.3361499999999999  3.6061800000000002
  9.9393499999999992  3.5609199999999999 29.7716999999999992
  0.1617520000000000  3.9955900000000000  0.4238350000000000
  0.5192860000000000  3.1081500000000002 29.3023999999999987
  8.5884199999999993  2.0473100000000000  2.7852100000000002
  8.3691600000000008  1.6256600000000001  3.6559599999999999
  9.1266300000000005  1.3509000000000000  2.3059200000000000
  0.3013010000000000  4.1565899999999996  2.2689499999999998
  1.2015300000000000  4.0512600000000001  2.7202099999999998
  9.9095300000000002  3.4690699999999999  2.6935500000000001
  0.1173890000000000  4.7512200000000000 27.2992999999999988
  0.0164916000000000  4.4051200000000001 28.2114000000000011
  0.7342590000000000  4.1993000000000000 26.7845000000000013
