Cu O  H  O  H  O  H  O  H  O  H  O  H  O  H  O  H  O  H  O  H  O  H  O  H  O  H  O  H  O  H  O  H  O  H  O  H  O  H  O  H  O  H  O  H  O  H  O  H  O  H  O  H  O  H  O  H  O  H  O  H  O  H  O  H  O  H  O  H  O  H  O  H  O  H  O  H  O  H  O  H  O  H  O  H  O  H  O  H  O  H  O  H  O  H  O  H  O  H  O  H 
 1.0000000000000000
    10.1403771778044529    0.0000000000000000    0.0000000000000000
     0.0000000000000000    8.7818242399346058    0.0000000000000000
     0.0000000000000000    0.0000000000000000   30.1311271579000000
 Cu  O   H   O   H   O   H   O   H   O   H   O   H   O   H   O   H   O   H   O   H   O   H   O   H   O   H   O   H   O   H   O   H   O   H   O   H   O   H   O   H   O   H   O   H   O   H   O   H   O   H   O   H   O   H   O   H   O   H   O   H   O   H   O   H   O   H   O   H   O   H   O   H   O   H   O   H   O   H   O   H   O   H   O   H   O   H   O   H   O   H   O   H   O   H   O   H   O   H   O   H  
  96   1   2   1   2   1   2   1   2   1   2   1   2   1   2   1   2   1   2   1   2   1   2   1   2   1   2   1   2   1   2   1   1   1   2   1   2   1   3   1   2   1   2   1   2   1   1   1   2   1   2   1   2   1   2   1   2   1   1   1   2   1   3   1   2   1   2   1   2   1   2   1   2   1   2   1   2   1   2   1   2   1   2   1   4   1   2   1   1   1   2   1   2   1   2   1   2   1   2   1   2
Cartesian
  7.1440299999999999  1.0718799999999999  9.8494200000000003
  9.5036400000000008  1.1171100000000000  9.8278999999999996
  1.8911899999999999  1.0562000000000000  9.7977299999999996
  4.6301100000000002  0.8670040000000000  9.8643400000000003
  8.3079099999999997  3.2472400000000001  9.9024400000000004
  0.4755510000000000  3.3523200000000002  9.9360499999999998
  3.1000200000000002  3.2523900000000001  9.8623300000000000
  5.7996499999999997  3.1678700000000002  9.9148700000000005
  9.5356799999999993  5.4291000000000000  9.7305600000000005
  1.9279599999999999  5.3685900000000002  9.8128200000000003
  4.5722300000000002  5.3470399999999998  9.8479500000000009
  7.0360100000000001  5.2692699999999997  9.8184500000000003
  0.7970170000000000  7.5538499999999997  9.8792299999999997
  3.2069899999999998  7.5404999999999998  9.9172600000000006
  5.8439300000000003  7.6421999999999999  9.9192099999999996
  8.3820099999999993  7.6451000000000002  9.9678699999999996
  5.6666999999999996  1.8067500000000001 12.0061000000000000
  8.1523199999999996  1.8028200000000001 11.9379000000000008
  0.7453070000000001  1.7603300000000000 11.9090000000000007
  3.2406199999999998  1.7335600000000000 11.9018999999999995
  6.9596099999999996  3.9568900000000000 11.9808000000000003
  9.5142399999999991  4.0539800000000001 11.8749000000000002
  2.0588299999999999  3.8927100000000001 12.0404999999999998
  4.4431900000000004  4.0028400000000000 11.9446999999999992
  8.2544699999999995  6.2606000000000002 11.9292999999999996
  0.7121390000000000  5.9548899999999998 11.9669000000000008
  3.1393200000000001  6.1075100000000004 11.9093999999999998
  5.7650600000000001  6.0454400000000001 12.0349000000000004
  9.6780899999999992  8.2797900000000002 11.9307999999999996
  1.9535499999999999  8.3583300000000005 12.0113000000000003
  4.4539799999999996  8.3327000000000009 12.0493000000000006
  6.9169499999999999  8.4151299999999996 11.9398999999999997
  5.7039600000000004  0.3659090000000000 14.0305999999999997
  8.2390600000000003  0.3659090000000000 14.0305999999999997
  0.6337739999999999  0.3659090000000000 14.0305999999999997
  3.1688700000000001  0.3659090000000000 14.0305999999999997
  6.9715100000000003  2.5613700000000001 14.0305999999999997
  9.5066000000000006  2.5613700000000001 14.0305999999999997
  1.9013199999999999  2.5613700000000001 14.0305999999999997
  4.4364200000000000  2.5613700000000001 14.0305999999999997
  8.2390600000000003  4.7568200000000003 14.0305999999999997
  0.6337739999999999  4.7568200000000003 14.0305999999999997
  3.1688700000000001  4.7568200000000003 14.0305999999999997
  5.7039600000000004  4.7568200000000003 14.0305999999999997
  9.5066000000000006  6.9522800000000000 14.0305999999999997
  1.9013199999999999  6.9522800000000000 14.0305999999999997
  4.4364200000000000  6.9522800000000000 14.0305999999999997
  6.9715100000000003  6.9522800000000000 14.0305999999999997
  6.9715100000000003  1.0977300000000001 16.1005000000000003
  9.5066000000000006  1.0977300000000001 16.1005000000000003
  1.9013199999999999  1.0977300000000001 16.1005000000000003
  4.4364200000000000  1.0977300000000001 16.1005000000000003
  8.2390600000000003  3.2931800000000000 16.1005000000000003
  0.6337739999999999  3.2931800000000000 16.1005000000000003
  3.1688700000000001  3.2931800000000000 16.1005000000000003
  5.7039600000000004  3.2931800000000000 16.1005000000000003
  9.5066000000000006  5.4886400000000002 16.1005000000000003
  1.9013199999999999  5.4886400000000002 16.1005000000000003
  4.4364200000000000  5.4886400000000002 16.1005000000000003
  6.9715100000000003  5.4886400000000002 16.1005000000000003
  0.6337739999999999  7.6840999999999999 16.1005000000000003
  3.1688700000000001  7.6840999999999999 16.1005000000000003
  5.7039600000000004  7.6840999999999999 16.1005000000000003
  8.2390600000000003  7.6840999999999999 16.1005000000000003
  5.9220199999999998  1.9255199999999999 18.1372000000000000
  8.4512800000000006  1.7579300000000000 18.1127000000000002
  0.7423030000000000  1.8098700000000001 18.1981000000000002
  3.3049100000000000  1.7740199999999999 18.1503000000000014
  7.1241099999999999  4.0324000000000000 18.1463000000000001
  9.6555499999999999  4.0186099999999998 18.1426000000000016
  1.9946200000000001  4.0786300000000004 18.2165999999999997
  4.3927500000000004  4.0450999999999997 18.0908000000000015
  8.2874999999999996  6.1186400000000001 18.3121000000000009
  0.6680990000000000  6.1776799999999996 18.2105999999999995
  3.1893300000000000  6.2495399999999997 18.1233000000000004
  5.6803200000000000  6.1327199999999999 18.2086000000000006
  9.5955399999999997  8.3748799999999992 18.1533000000000015
  2.0361899999999999  8.4297199999999997 18.2144000000000013
  4.5631399999999998  8.3722100000000008 18.2846000000000011
  7.0256499999999997  8.5048499999999994 18.0844999999999985
  5.9020599999999996  0.3512010000000000 20.1967999999999996
  8.3926400000000001  0.2967190000000000 20.1920000000000002
  0.7696730000000001  0.3524690000000000 20.4423999999999992
  3.3685100000000001  0.3106210000000000 20.2799000000000014
  7.2127400000000002  2.4916600000000000 20.2089999999999996
  9.5427000000000000  2.4170500000000001 20.1286999999999985
  2.0185100000000000  2.5586700000000002 20.1599000000000004
  4.5810599999999999  2.3178500000000000 20.2098000000000013
  8.3483999999999998  4.6098600000000003 20.3059000000000012
  0.6939780000000000  4.6085300000000000 20.2356000000000016
  3.3887600000000000  4.6638900000000003 20.1691000000000003
  5.9232600000000000  4.6272799999999998 20.2433000000000014
  9.6209100000000003  6.9926599999999999 20.2881999999999998
  2.0914700000000002  6.7878999999999996 20.2142000000000017
  4.7089100000000004  6.9360999999999997 20.3302000000000014
  7.1689299999999996  6.9547200000000000 20.3069999999999986
  8.9138099999999998  7.8796400000000002 28.4241999999999990
  9.7925000000000004  7.6133100000000002 28.0195000000000007
  8.6179900000000007  8.6476900000000008 27.9257999999999988
  2.6842400000000000  8.1936400000000003 24.6119999999999983
  2.2159800000000001  7.4048200000000000 24.0966999999999985
  3.5205799999999998  8.4242799999999995 24.1450999999999993
  3.8572400000000000  5.3126800000000003  4.7198200000000003
  1.3270299999999999  0.2825010000000000 25.3260000000000005
  3.4081700000000001  5.9328300000000000  5.3016699999999997
  3.2325100000000000  4.0724200000000002  2.4489899999999998
  3.0220799999999999  4.8541100000000004  1.9332600000000000
  3.5067100000000000  4.3972699999999998  3.2791399999999999
  7.2973699999999999  1.0046500000000000 27.6966000000000001
  7.4472399999999999  1.6976500000000001 27.0372999999999983
  7.3819900000000001  1.4175899999999999 28.5530000000000008
  8.8893100000000000  2.3736600000000001 25.6790999999999983
  3.2622800000000001  7.7933199999999996  2.5439799999999999
  9.2560599999999997  3.1953700000000000 25.9235000000000007
  0.3545110000000000  8.5234400000000008  6.8733500000000003
  0.9778230000000000  0.7531880000000000 28.0777999999999999
  0.8599000000000000  7.6918800000000003  6.6185700000000001
  3.0631900000000001  8.5615100000000002  3.1402199999999998
  6.4472300000000002  4.9265100000000004 24.8936999999999991
  2.1672300000000000  8.4332700000000003  3.4508399999999999
  7.2061500000000001  0.6976329999999999 23.5042000000000009
  7.3257800000000000  0.9657680000000000 22.4866999999999990
  3.9778400000000000  7.1151099999999996 26.9530999999999992
  3.3982700000000001  6.4709300000000001 26.4866999999999990
  3.1432099999999998  7.0925200000000004 25.7534999999999989
  9.8975600000000004  8.0902100000000008  3.3511899999999999
  6.4016700000000002  5.0265800000000000 25.8652000000000015
  5.5754500000000000  5.5209599999999996 25.9193999999999996
  1.8795200000000001  2.4726200000000000 23.8303000000000011
  0.2484870000000000  4.2006300000000003 26.4022000000000006
  0.2449400000000000  5.1373800000000003 26.5808000000000000
  1.1536299999999999  4.0813800000000002 26.0620000000000012
  0.9364450000000000  1.1892799999999999 28.9553000000000011
  8.3156599999999994  2.5355099999999999 24.8850000000000016
  1.8290800000000000  1.2982700000000000 29.2951000000000015
  2.3682599999999998  1.5720499999999999  6.1032099999999998
  1.7421100000000000  0.8958120000000001  6.4705399999999997
  2.1480800000000002  1.8330100000000000  5.2328599999999996
  0.5812550000000000  0.4433160000000000 25.9731999999999985
  0.2909330000000000  8.5404099999999996  7.8176899999999998
 -0.0046215900000000  1.0580799999999999 25.5488000000000000
  8.2923100000000005  4.7891399999999997  1.1984100000000000
  9.0069800000000004  5.4441199999999998  1.1283500000000000
  4.5491500000000000  3.2613400000000001 28.5271000000000008
  5.4554400000000003  2.9265200000000000 28.4253000000000000
  4.2219300000000004  3.5093100000000002 27.6093000000000011
  7.8225600000000002  1.8891800000000001  6.5975099999999998
  6.8445499999999999  2.0074999999999998  6.6342100000000004
  7.9447799999999997  1.6694599999999999  7.5846600000000004
  0.8878980000000000  3.8746499999999999  6.7938599999999996
  1.4524400000000000  3.1049199999999999  6.6000800000000002
  1.0202700000000000  4.0172900000000000  7.7531900000000000
  8.3978800000000007  4.2657499999999997  2.0239300000000000
  0.3402960000000000  7.4536199999999999  2.9631599999999998
  0.3342810000000000  6.5445200000000003  3.4680700000000000
  7.0815000000000001  7.5749800000000000  7.4711100000000004
  7.7594099999999999  7.7276600000000002  6.7742800000000001
  8.6189800000000005  7.9843299999999999  7.0543899999999997
  7.6202600000000000  8.6273999999999997 23.5623000000000005
  5.3200300000000000  6.1951299999999998  2.4962300000000002
  6.0432699999999997  5.4855600000000004  2.4680800000000001
  4.8775399999999998  6.1140299999999996  3.3793299999999999
  2.8553099999999998  2.4227500000000002 24.1811000000000007
  3.3470499999999999  1.8206800000000001 23.6213000000000015
  6.0370100000000004  3.2131699999999999  2.1042800000000002
  5.1476899999999999  2.9563000000000001  2.3332899999999999
  7.9921699999999998  6.2539300000000004 23.8892999999999986
  7.4127299999999998  6.5129900000000003 23.1748000000000012
  3.7418000000000000  1.5535200000000000  6.8151799999999998
  7.9156399999999998  6.1463700000000001 22.4332999999999991
  4.7041700000000004  1.6022099999999999  7.1101299999999998
  6.5948399999999996  2.9489600000000000  2.8537699999999999
  4.8310399999999998  2.5352999999999999  7.2049200000000004
  0.7939510000000000  6.7119900000000001 27.0204999999999984
  1.7610500000000000  6.6176199999999996 26.9591999999999992
  0.6103360000000000  7.5018300000000000 26.4481999999999999
  4.4124900000000000  0.5017960000000000 23.1461000000000006
  4.2071300000000003  0.1209140000000000 22.2475999999999985
  0.7023870000000000  1.8155399999999999 22.4354000000000013
  0.3914700000000000  1.8368599999999999 23.3259000000000007
  6.5186099999999998  4.5463699999999996  6.5535100000000002
  5.5435100000000004  4.3582700000000001  6.6104599999999998
  5.3759100000000002  0.5409060000000000 23.3597000000000001
  5.2287999999999997  4.5818199999999996  7.4990500000000004
  5.5137400000000003  0.6382690000000000  4.3320499999999997
  4.8009100000000000  0.0608241000000000  4.1080800000000002
  5.3883099999999997  0.8991900000000000  5.2566100000000002
  7.7044699999999997  4.2555600000000000 22.7119999999999997
  7.8917900000000003  3.5366399999999998 23.3693999999999988
  1.9051600000000000  6.4901799999999996  0.8186850000000000
  7.1982900000000001  2.9667200000000000 22.9934000000000012
  2.8328500000000001  6.3378100000000002  1.0640099999999999
  3.3698199999999998  6.1131799999999998  0.3207510000000000
  0.5416680000000000  4.7803800000000001  5.0471800000000000
  7.4461399999999998  3.8383600000000002 28.3125000000000000
  7.1694100000000001  4.4646100000000004 27.6260000000000012
  7.5110299999999999  4.4793900000000004 29.0871999999999993
  4.8696000000000002  8.0615400000000008 28.1570999999999998
  5.7803000000000004  8.3122900000000008 27.9189000000000007
  8.2502200000000006  5.8965199999999998  6.9095800000000001
  8.2698699999999992  5.0266999999999999  6.4452199999999999
  5.0627800000000001  4.6129899999999999 29.4739000000000004
  8.6876499999999997  4.4215799999999996  7.0447499999999996
  5.0711500000000003  5.4797000000000002 29.9066000000000010
  5.0262099999999998  7.5079500000000001 28.9613000000000014
  5.2949500000000000  5.4207200000000002  0.7016610000000000
  0.1029770000000000  6.8799999999999999  0.5415910000000000
  9.7770499999999991  7.4865000000000004 30.0551999999999992
 -0.0034576800000000  7.2887399999999998  1.4286600000000000
  5.8429099999999998  8.4428400000000003  0.7469789999999999
  9.8242499999999993  2.4734900000000000 23.1778000000000013
  1.7404200000000001  5.5608000000000004  6.7721200000000001
  2.0610200000000001  6.4755799999999999  6.6723900000000000
  3.5404700000000000  4.8197200000000002 26.1195999999999984
  2.4090300000000000  6.7486800000000002  7.5650599999999999
  3.2199399999999998  3.9397899999999999 26.2616000000000014
  5.1889900000000004  0.3454250000000000  0.5060910000000000
  3.3035100000000002  3.4212199999999999 25.4228999999999985
  3.4260600000000001  1.9026700000000001  0.6338560000000000
  3.6023999999999998  2.4795300000000000  1.4011000000000000
  3.9884300000000001  2.3142499999999999 30.0792000000000002
  4.3644200000000000  4.7243300000000001  5.3426099999999996
  7.0705999999999998  0.8090349999999999  0.8454260000000000
  7.5650899999999996  1.6313700000000000  0.6044490000000000
  3.7286100000000002  4.0296300000000000 23.4272999999999989
  6.8948200000000002  2.2916400000000001  0.7820279999999999
  3.9598800000000001  4.9449500000000004 23.4945999999999984
  4.4155199999999999  5.1981400000000004 22.7378000000000000
  0.3749270000000000  5.0857500000000000  4.1580100000000000
  0.5992570000000000  4.2777300000000000  3.5933700000000002
  5.5063800000000001  7.8892499999999997  1.5223899999999999
  1.1763200000000000  2.4851100000000002  3.4927500000000000
  0.5569499999999999  2.0994000000000002  2.8553600000000001
  1.9500800000000000  2.6585700000000001  2.9256500000000001
  0.0207366000000000  2.0218600000000002  1.1051100000000000
  0.0637158000000000  1.6772499999999999  0.1985990000000000
  9.1607599999999998  2.0644100000000001  1.0761099999999999
  7.8975499999999998  3.0833499999999998  4.0614100000000004
  8.0833399999999997  3.9242499999999998  4.4915300000000000
  7.9539000000000000  2.5382899999999999  4.9000000000000004
  8.2866300000000006  0.1886310000000000  3.9601899999999999
  7.3869400000000001  0.4843560000000000  3.8125000000000000
  8.3237400000000008  8.7141099999999998  4.9321500000000000
  1.1676299999999999  6.2387899999999998 23.4926999999999992
  1.0032799999999999  6.3655099999999996 22.5066999999999986
  1.6696700000000000  5.4359700000000002 23.4395999999999987
