Cu  O  H  O  H  O  H  O  H  O  H  O  H  O  H  O  H  O  H  O  H  O  H  O  H  O  H  O  H  O  H  O  H  O  H  O  H  O  H  O  H  O  H  O  H  O  H  O  H  O  H  O  H  O  H  O  H  O  H  O  H  O  H  O  H  O  H  O  H  O  H  O  H  O  H  O  H  O  H  O  H  O  H  O  H  O  H  O  H  O  H  O  H  O  H  O  H  O  H  O  H 
 1.0000000000000000
    10.1403771778044529    0.0000000000000000    0.0000000000000000
     0.0000000000000000    8.7818242399346058    0.0000000000000000
     0.0000000000000000    0.0000000000000000   30.1311271579000000
 Cu  O   H   O   H   O   H   O   H   O   H   O   H   O   H   O   H   O   H   O   H   O   H   O   H   O   H   O   H   O   H   O   H   O   H   O   H   O   H   O   H   O   H   O   H   O   H   O   H   O   H   O   H   O   H   O   H   O   H   O   H   O   H   O   H   O   H   O   H   O   H   O   H   O   H   O   H   O   H   O   H   O   H   O   H   O   H   O   H   O   H   O   H   O   H   O   H   O   H   O   H  
  96   1   2   1   2   1   2   1   2   1   2   1   2   1   2   1   2   1   2   1   2   1   2   1   2   1   2   1   2   1   2   1   1   1   2   1   2   1   3   1   2   1   2   1   2   1   1   1   2   1   2   1   2   1   2   1   2   1   1   1   2   1   3   1   2   1   2   1   2   1   2   1   2   1   2   1   2   1   2   1   2   1   2   1   4   1   2   1   1   1   2   1   2   1   2   1   2   1   2   1   2
Cartesian
  6.9987800000000000  0.9899980000000000  9.8370499999999996
  9.5380800000000008  0.8540960000000000 10.0739000000000001
  1.9171300000000000  0.9317029999999999 10.0541000000000000
  4.3470199999999997  0.8087410000000000  9.9388400000000008
  8.2622599999999995  3.1888100000000001  9.8943399999999997
  0.6868860000000000  3.0991800000000000  9.9224700000000006
  3.1081099999999999  3.1560899999999998  9.9854199999999995
  5.7081400000000002  3.2103999999999999  9.8502899999999993
  9.5671800000000005  5.3839499999999996  9.8663000000000007
  1.9170600000000000  5.3851199999999997 10.0444999999999993
  4.5188600000000001  5.4173600000000004 10.0498999999999992
  6.9260200000000003  5.3360399999999997 10.0167999999999999
  0.6516560000000000  7.5466300000000004  9.9306099999999997
  3.3037600000000000  7.5016600000000002  9.9517100000000003
  5.7262700000000004  7.6165500000000002  9.9254200000000008
  8.1427700000000005  7.5689599999999997  9.8386200000000006
  5.6910400000000001  1.7485400000000000 11.9602000000000004
  8.0993200000000005  1.7167200000000000 12.0265000000000004
  0.4981850000000000  1.7001200000000001 11.9720999999999993
  3.1956099999999998  1.7448500000000000 12.0897000000000006
  6.9299799999999996  3.8996900000000001 11.9692000000000007
  9.4999599999999997  3.9452199999999999 11.9345999999999997
  1.8603700000000001  4.0314899999999998 11.9540000000000006
  4.4131700000000000  3.8350599999999999 11.9277999999999995
  8.2580899999999993  6.0539199999999997 11.8322000000000003
  0.5658320000000000  6.1715299999999997 12.0442999999999998
  3.1027900000000002  6.1441600000000003 12.0573999999999995
  5.7494300000000003  6.2113199999999997 12.1075999999999997
  9.4663699999999995  8.2967300000000002 12.0215999999999994
  1.7690300000000001  8.4001199999999994 11.9242000000000008
  4.4171600000000000  8.2809000000000008 12.0368999999999993
  6.8867000000000003  8.3026900000000001 11.8981999999999992
  5.7039600000000004  0.3659090000000000 14.0305999999999997
  8.2390600000000003  0.3659090000000000 14.0305999999999997
  0.6337739999999999  0.3659090000000000 14.0305999999999997
  3.1688700000000001  0.3659090000000000 14.0305999999999997
  6.9715100000000003  2.5613700000000001 14.0305999999999997
  9.5066000000000006  2.5613700000000001 14.0305999999999997
  1.9013199999999999  2.5613700000000001 14.0305999999999997
  4.4364200000000000  2.5613700000000001 14.0305999999999997
  8.2390600000000003  4.7568200000000003 14.0305999999999997
  0.6337739999999999  4.7568200000000003 14.0305999999999997
  3.1688700000000001  4.7568200000000003 14.0305999999999997
  5.7039600000000004  4.7568200000000003 14.0305999999999997
  9.5066000000000006  6.9522800000000000 14.0305999999999997
  1.9013199999999999  6.9522800000000000 14.0305999999999997
  4.4364200000000000  6.9522800000000000 14.0305999999999997
  6.9715100000000003  6.9522800000000000 14.0305999999999997
  6.9715100000000003  1.0977300000000001 16.1005000000000003
  9.5066000000000006  1.0977300000000001 16.1005000000000003
  1.9013199999999999  1.0977300000000001 16.1005000000000003
  4.4364200000000000  1.0977300000000001 16.1005000000000003
  8.2390600000000003  3.2931800000000000 16.1005000000000003
  0.6337739999999999  3.2931800000000000 16.1005000000000003
  3.1688700000000001  3.2931800000000000 16.1005000000000003
  5.7039600000000004  3.2931800000000000 16.1005000000000003
  9.5066000000000006  5.4886400000000002 16.1005000000000003
  1.9013199999999999  5.4886400000000002 16.1005000000000003
  4.4364200000000000  5.4886400000000002 16.1005000000000003
  6.9715100000000003  5.4886400000000002 16.1005000000000003
  0.6337739999999999  7.6840999999999999 16.1005000000000003
  3.1688700000000001  7.6840999999999999 16.1005000000000003
  5.7039600000000004  7.6840999999999999 16.1005000000000003
  8.2390600000000003  7.6840999999999999 16.1005000000000003
  5.6822900000000001  1.8187100000000000 18.1553000000000004
  8.1061099999999993  1.8324199999999999 18.1292000000000009
  0.7039040000000000  1.9197100000000000 18.1854000000000013
  3.1472199999999999  1.8486400000000001 18.0136000000000003
  7.0156200000000002  3.9551599999999998 18.0897000000000006
  9.5678500000000000  3.9996600000000000 18.2676000000000016
  1.9242200000000000  3.9972500000000002 18.1408999999999985
  4.5133500000000000  3.9772900000000000 18.1426000000000016
  8.2637400000000003  6.2281500000000003 18.2792999999999992
  0.6342950000000001  6.1938300000000002 18.1254999999999988
  3.1518400000000000  6.1127300000000000 18.2613999999999983
  5.7687499999999998  6.1725300000000001 18.0920999999999985
  9.4969999999999999  8.3510500000000008 18.2316000000000003
  1.9637400000000000  8.4573300000000007 18.1999999999999993
  4.4389099999999999  8.3897600000000008 18.2686999999999991
  6.9239199999999999  8.3689900000000002 18.2542000000000009
  5.6809000000000003  0.4950840000000000 20.1885000000000012
  8.3117999999999999  0.3912570000000000 20.1937999999999995
  0.7369250000000001  0.3878820000000000 20.1201000000000008
  3.2661199999999999  0.4665010000000000 20.2001999999999988
  7.0038600000000004  2.4271600000000002 20.3542999999999985
  9.4591600000000007  2.4771000000000001 20.2037000000000013
  2.0451700000000002  2.5249299999999999 20.0334000000000003
  4.4694500000000001  2.6515000000000000 20.1010999999999989
  8.2232000000000003  4.5446400000000002 20.1738000000000000
  0.6208990000000000  4.6564300000000003 20.1764000000000010
  3.1399699999999999  4.8071500000000000 20.2178000000000004
  5.6598800000000002  4.7805000000000000 20.1095000000000006
  9.6221399999999999  6.9609100000000002 20.2058999999999997
  1.8907000000000000  6.9370599999999998 20.2591000000000001
  4.5485699999999998  6.9120200000000001 20.2044999999999995
  6.9945000000000004  6.9027099999999999 20.2086000000000006
  5.5772100000000000  2.0483199999999999 29.6483999999999988
  5.4279299999999999  1.0422899999999999 29.5445999999999991
  5.7140800000000000  2.3858999999999999 28.7491999999999983
  2.1449799999999999  6.5221999999999998 24.9081000000000010
  1.5263500000000001  5.8690100000000003 24.6210999999999984
  2.0773000000000001  7.3253599999999999 24.3499000000000017
  6.5341699999999996  6.1178600000000003 23.7368999999999986
  2.5460799999999999  0.3396300000000000  0.5282050000000000
  6.9970299999999996  5.9947400000000002 22.9266000000000005
  0.6890490000000000  5.0749100000000000  3.8963600000000000
  1.6455400000000000  4.8567700000000000  4.0710300000000004
  0.3772460000000000  5.4613600000000000  4.7558400000000001
  4.2842399999999996  3.3813499999999999 26.2620000000000005
  4.0260300000000004  4.2091000000000003 26.8398000000000003
  4.5704799999999999  3.5785200000000001 25.3987000000000016
  1.6499699999999999  8.8138199999999998 23.4836999999999989
  8.2758000000000003  0.6033090000000000 27.8587999999999987
  1.3900399999999999  0.8813960000000000 23.8493999999999993
  4.6039500000000002  3.0875300000000001  6.6679399999999998
  9.7300299999999993  4.1719600000000003  2.6859799999999998
  4.4337600000000004  3.4168799999999999  7.4981099999999996
  7.9319699999999997  1.3450400000000000 27.3670000000000009
  7.1727600000000002  6.3872499999999999  1.3081300000000000
  7.4887199999999998  0.9209220000000000 26.5780999999999992
  5.4703200000000001  1.4035899999999999  3.3254199999999998
  6.1964100000000002  2.0551100000000000  3.4200300000000001
  3.5358499999999999  4.2971199999999996 23.5145000000000017
  4.1416500000000003  5.0055199999999997 23.8599999999999994
  3.5685199999999999  5.7700600000000000 24.1537000000000006
  2.4089299999999998  4.4834699999999996  0.8062340000000000
  7.4855499999999999  5.4978899999999999  0.9904330000000000
  7.5952700000000002  5.6342400000000001 30.1309000000000005
  8.4414200000000008  3.4110700000000000 22.3048999999999999
  4.7018700000000004  4.5001400000000000  1.4631200000000000
  4.7234200000000000  3.9465300000000001  0.6940020000000000
  5.6104799999999999  4.8361900000000002  1.6463000000000001
  9.6656300000000002  3.8325499999999999  1.7693000000000001
  1.5589299999999999  0.1590690000000000 22.5317000000000007
  9.2154799999999994  4.5591200000000001  1.3167899999999999
  9.9429800000000004  4.7246400000000000 26.0934999999999988
  8.9662400000000009  4.8679500000000004 25.9875000000000007
  0.1113620000000000  4.0278999999999998 25.4847000000000001
  2.6352000000000002  8.3357500000000009 30.1151000000000018
  5.5401199999999999  3.3614400000000000  6.4850899999999996
  1.9293700000000000  7.6863799999999998  0.1804640000000000
  2.7043400000000002  3.1507700000000001 22.9558999999999997
  2.0967099999999999  3.3019099999999999 22.2113000000000014
  0.0713594000000000  3.5533299999999999 28.5140999999999991
 10.0734999999999992  3.9350700000000001 27.6336000000000013
  9.3594799999999996  3.1046900000000002 28.6616000000000000
  7.8527600000000000  1.5050399999999999  1.3019300000000000
  7.1099600000000001  1.6684800000000000  0.6752070000000000
  8.2511899999999994  2.3561800000000002  1.5747400000000000
  7.5856599999999998  6.4351700000000003  4.7520800000000003
  7.9647500000000004  6.9466400000000004  5.4764999999999997
  7.2753500000000004  7.1818499999999998  4.2023599999999997
  3.4717099999999999  2.6393200000000001 22.5585999999999984
  2.2373799999999999  3.7586599999999999  0.1959420000000000
  1.2827100000000000  3.7700900000000002  0.0191217000000000
  7.0030999999999999  4.2807800000000000  7.5278400000000003
  7.1236300000000004  4.0954400000000000  6.6220299999999996
  7.0795899999999996  4.9735100000000001  6.1651300000000004
  5.2289300000000001  0.9957120000000000  4.1630200000000004
  7.1313899999999997  5.0543800000000001 26.0890999999999984
  6.4189499999999997  4.4318200000000001 25.9018000000000015
  7.0238500000000004  5.6908000000000003 25.3536000000000001
  8.5139700000000005  3.5586700000000002 23.3275000000000006
  7.5555899999999996  3.5729199999999999 23.5771000000000015
  9.0245200000000008  8.5520300000000002  3.4868700000000001
  9.3972899999999999  0.4137160000000000  4.0796099999999997
  0.9979600000000000  2.8054199999999998 23.9228999999999985
  0.4584390000000000  2.1261899999999998 24.4500999999999991
  8.6533300000000004  1.0084900000000001  5.8082399999999996
  9.7832000000000008  2.4607199999999998 24.1117999999999988
  9.2202199999999994  1.7110700000000001  5.3025200000000003
  8.6701400000000000  0.2368860000000000  2.7059299999999999
  9.8158999999999992  2.0638200000000002  5.9792600000000000
  3.3852799999999998  4.0438099999999997  4.0274700000000001
  3.8441299999999998  3.5325700000000002  4.7138999999999998
  3.9612400000000001  4.0354099999999997  3.2145899999999998
  2.6331400000000000  1.5832500000000000 27.6815999999999995
  3.0350400000000000  2.2018700000000000 27.0408000000000008
  1.8640500000000000 -0.1012120000000000  5.2351599999999996
  2.3632100000000000  8.6732399999999998  4.3996199999999996
  3.9195700000000002  1.6135800000000000  2.3604699999999998
  3.0123000000000002  1.4114800000000001  2.0653800000000002
  2.0327199999999999  2.0858400000000001 28.2811999999999983
  2.5613600000000001  2.2388400000000002  1.8743099999999999
  7.3582599999999996  3.2863500000000001  4.1337400000000004
  8.0292200000000005  2.9104700000000001  4.7672699999999999
  7.1531200000000004  4.2204699999999997  4.2994700000000003
  3.2695900000000000  4.5601200000000004 28.7173000000000016
  3.7965399999999998  5.2258599999999999 28.3551000000000002
  6.0450799999999996  2.0125600000000001 23.8603999999999985
  3.2689599999999999  6.0295100000000001 28.2771000000000008
  5.7694999999999999  2.8133300000000001 23.3353999999999999
  6.0274200000000002  2.6519300000000001 22.4406999999999996
  3.8160900000000000  5.7951100000000002  7.8216000000000001
  5.2902300000000002  8.3646399999999996 29.0304000000000002
  4.4216400000000000  8.0819399999999995 29.3234999999999992
  5.8913500000000001  7.6339899999999998 28.6861999999999995
  7.4194899999999997  7.0223300000000002 28.0416999999999987
  8.3633199999999999  7.1419400000000000 28.4290999999999983
  1.2172200000000000  8.6836099999999998  8.0090199999999996
  1.5243800000000001  8.4556500000000003  7.0884499999999999
  9.8775800000000000  8.1005599999999998 23.5600999999999985
  2.3498500000000000  8.0344700000000007  7.3619800000000000
  8.9148300000000003  8.0780100000000008 23.4706000000000010
  7.4101800000000004  6.2876399999999997 27.4355000000000011
  8.8197799999999997  7.9819300000000002 22.5008000000000017
  2.0669200000000001  7.2405900000000001 27.5104000000000006
  1.8907700000000001  6.9943099999999996 26.5608000000000004
  2.1320299999999999  8.2071900000000007 27.5777000000000001
  0.6716070000000000  5.0819700000000001 23.3123000000000005
  2.3624499999999999  0.7407980000000000  3.9951599999999998
  0.8710200000000000  3.7842600000000002  6.9099599999999999
  0.9869790000000001  2.8405300000000002  6.8430999999999997
  6.3745200000000004  8.3019200000000009 24.5443999999999996
  1.4622700000000000  2.4954399999999999  7.6200599999999996
  6.8839899999999998  0.2403240000000000 24.9588000000000001
  9.8913200000000003  4.9031200000000004 23.3591000000000015
  7.7795399999999999  8.6148399999999992 24.6762000000000015
  3.5965900000000000  6.7197399999999998  3.0879099999999999
  3.1823399999999999  7.4803800000000003  3.5030600000000001
  3.5549400000000002  5.9585699999999999  3.6903899999999998
  5.6156100000000002  5.7000099999999998 23.5716999999999999
  9.8301400000000001  7.3076499999999998 29.9856000000000016
  9.7857800000000008  7.6093500000000001 29.0493999999999986
  0.9234670000000000  6.4116000000000000  2.3042099999999999
  0.4673640000000000  7.3886399999999997 28.6518000000000015
  0.3274670000000000  6.9378299999999999  1.7626800000000000
 10.0472999999999999  7.5361000000000002  2.4801700000000002
  4.1961899999999996  6.2607499999999998  7.0902900000000004
  5.0127499999999996  6.5959800000000000  7.4848299999999997
  0.7253050000000000  5.3315500000000000 22.4232000000000014
 10.1852999999999998  5.8182900000000002  6.5630600000000001
  9.7702700000000000  5.4350699999999996  7.3620999999999999
  0.4534670000000000  6.6503399999999999  6.9072300000000002
  4.8978599999999997  0.5098120000000000  6.1405799999999999
  4.0293900000000002  0.1839360000000000  6.0880799999999997
  4.8813399999999998  1.4405800000000000  6.5325800000000003
  7.8929900000000002  8.6105199999999993  6.7432499999999997
  8.0519099999999995  8.7030600000000007  7.7422800000000001
  6.9969799999999998  0.0996468000000000  6.6448299999999998
  6.0864200000000004  7.5703199999999997  2.4005700000000001
  6.1003900000000000  8.5453200000000002  2.3352300000000001
  5.1968500000000004  7.3417000000000003  2.7173200000000000
  4.4424400000000004  8.1570000000000000 23.4570000000000007
  3.5223399999999998  8.4932599999999994 23.3731000000000009
  4.6018800000000004  7.5355100000000004 22.7610999999999990
