Cu O  H  O  H  O  H  O  H  O  H  O  H  O  H  O  H  O  H  O  H  O  H  O  H  O  H  O  H  O  H  O  H  O  H  O  H  O  H  O  H  O  H  O  H  O  H  O  H  O  H  O  H  O  H  O  H  O  H  O  H  O  H  O  H  O  H  O  H  O  H  O  H  O  H  O  H  O  H  O  H  O  H  O  H  O  H  O  H  O  H  O  H  O  H  O  H  O  H  O  H 
 1.0000000000000000
    10.1403771778044529    0.0000000000000000    0.0000000000000000
     0.0000000000000000    8.7818242399346058    0.0000000000000000
     0.0000000000000000    0.0000000000000000   30.1311271579000000
 Cu  O   H   O   H   O   H   O   H   O   H   O   H   O   H   O   H   O   H   O   H   O   H   O   H   O   H   O   H   O   H   O   H   O   H   O   H   O   H   O   H   O   H   O   H   O   H   O   H   O   H   O   H   O   H   O   H   O   H   O   H   O   H   O   H   O   H   O   H   O   H   O   H   O   H   O   H   O   H   O   H   O   H   O   H   O   H   O   H   O   H   O   H   O   H   O   H   O   H   O   H  
  96   1   2   1   2   1   2   1   2   1   2   1   2   1   2   1   2   1   2   1   2   1   2   1   2   1   2   1   2   1   2   1   1   1   2   1   2   1   3   1   2   1   2   1   2   1   1   1   2   1   2   1   2   1   2   1   2   1   1   1   2   1   3   1   2   1   2   1   2   1   2   1   2   1   2   1   2   1   2   1   2   1   2   1   4   1   2   1   1   1   2   1   2   1   2   1   2   1   2   1   2
Cartesian
  6.9702299999999999  1.0709800000000000  9.8673199999999994
  9.4271600000000007  1.0180899999999999  9.8503000000000007
  2.0761300000000000  1.0599400000000001  9.7863900000000008
  4.4817000000000000  0.9323950000000000  9.9175000000000004
  8.4634499999999999  3.3276599999999998  9.8911499999999997
  0.8084290000000000  3.2480000000000002  9.9004799999999999
  3.3985200000000000  3.3461099999999999  9.7420000000000009
  5.8953199999999999  3.1781000000000001  9.8933599999999995
  9.7374100000000006  5.4142099999999997  9.8084100000000003
  2.0426500000000001  5.5431699999999999  9.8782399999999999
  4.6696299999999997  5.5067300000000001  9.8741400000000006
  7.1237199999999996  5.4372900000000000 10.0970999999999993
  0.8392530000000000  7.6499400000000000  9.9799100000000003
  3.3973100000000001  7.5881400000000001  9.8262499999999999
  5.9467400000000001  7.6171800000000003  9.9945900000000005
  8.3814399999999996  7.6058899999999996  9.9042499999999993
  5.6383000000000001  1.8206500000000001 11.8003000000000000
  8.2609100000000009  1.8957200000000001 11.9318000000000008
  0.7424930000000000  1.8368500000000001 11.9329999999999998
  3.2328700000000001  1.8630100000000001 11.9267000000000003
  7.0148599999999997  3.9532799999999999 12.1228999999999996
  9.4328099999999999  4.0790199999999999 11.9352999999999998
  2.0455600000000000  4.0902399999999997 11.9135000000000009
  4.5557699999999999  4.0737399999999999 12.0282000000000000
  8.3550299999999993  6.2678099999999999 12.0489999999999995
  0.7055760000000000  6.1970200000000002 11.8480000000000008
  3.1758600000000001  6.1372700000000000 11.9948999999999995
  5.7205800000000000  6.2537700000000003 11.9393999999999991
  9.5208499999999994  8.5821299999999994 11.9771000000000001
  1.9595700000000000  8.4540500000000005 11.9899000000000004
  4.4112999999999998  8.4351400000000005 11.9360999999999997
  6.9883899999999999  8.3246900000000004 12.1056000000000008
  5.7039600000000004  0.3659090000000000 14.0305999999999997
  8.2390600000000003  0.3659090000000000 14.0305999999999997
  0.6337739999999999  0.3659090000000000 14.0305999999999997
  3.1688700000000001  0.3659090000000000 14.0305999999999997
  6.9715100000000003  2.5613700000000001 14.0305999999999997
  9.5066000000000006  2.5613700000000001 14.0305999999999997
  1.9013199999999999  2.5613700000000001 14.0305999999999997
  4.4364200000000000  2.5613700000000001 14.0305999999999997
  8.2390600000000003  4.7568200000000003 14.0305999999999997
  0.6337739999999999  4.7568200000000003 14.0305999999999997
  3.1688700000000001  4.7568200000000003 14.0305999999999997
  5.7039600000000004  4.7568200000000003 14.0305999999999997
  9.5066000000000006  6.9522800000000000 14.0305999999999997
  1.9013199999999999  6.9522800000000000 14.0305999999999997
  4.4364200000000000  6.9522800000000000 14.0305999999999997
  6.9715100000000003  6.9522800000000000 14.0305999999999997
  6.9715100000000003  1.0977300000000001 16.1005000000000003
  9.5066000000000006  1.0977300000000001 16.1005000000000003
  1.9013199999999999  1.0977300000000001 16.1005000000000003
  4.4364200000000000  1.0977300000000001 16.1005000000000003
  8.2390600000000003  3.2931800000000000 16.1005000000000003
  0.6337739999999999  3.2931800000000000 16.1005000000000003
  3.1688700000000001  3.2931800000000000 16.1005000000000003
  5.7039600000000004  3.2931800000000000 16.1005000000000003
  9.5066000000000006  5.4886400000000002 16.1005000000000003
  1.9013199999999999  5.4886400000000002 16.1005000000000003
  4.4364200000000000  5.4886400000000002 16.1005000000000003
  6.9715100000000003  5.4886400000000002 16.1005000000000003
  0.6337739999999999  7.6840999999999999 16.1005000000000003
  3.1688700000000001  7.6840999999999999 16.1005000000000003
  5.7039600000000004  7.6840999999999999 16.1005000000000003
  8.2390600000000003  7.6840999999999999 16.1005000000000003
  5.7598399999999996  1.9828699999999999 18.1927999999999983
  8.3195200000000007  2.0136500000000002 18.2832000000000008
  0.7535600000000000  1.8663600000000000 18.1709999999999994
  3.2832900000000000  1.8313299999999999 18.1442000000000014
  6.9987000000000004  4.2284300000000004 18.2016999999999989
  9.4602599999999999  4.1867299999999998 18.2638999999999996
  1.8871400000000000  4.0959300000000001 18.2395999999999994
  4.3630800000000001  4.1362399999999999 18.2009000000000007
  8.2243800000000000  6.2874999999999996 18.0730000000000004
  0.6320140000000000  6.2756999999999996 18.2643999999999984
  3.2212100000000001  6.1751800000000001 18.1890000000000001
  5.6959499999999998  6.2638499999999997 18.1874000000000002
  9.6309900000000006  8.4444300000000005 18.1875000000000000
  1.9210100000000001  8.3920800000000000 18.1971999999999987
  4.5871700000000004  8.4358699999999995 18.1389999999999993
  7.0546699999999998  8.4370799999999999 18.1769999999999996
  5.7802300000000004  0.5347520000000000 20.1865999999999985
  8.3748299999999993  0.4323380000000000 20.2824999999999989
  0.5969240000000000  0.2961970000000000 20.1888000000000005
  3.2231600000000000  0.4288520000000000 20.2848000000000006
  7.0924600000000000  2.6153100000000000 20.2923000000000009
  9.6326900000000002  2.6362299999999999 20.2591000000000001
  1.9611499999999999  2.4896500000000001 20.2543000000000006
  4.5234500000000004  2.6104200000000000 20.2482000000000006
  8.4283800000000006  4.7607499999999998 20.2491999999999983
  0.8873560000000000  4.6790200000000004 20.1205999999999996
  3.4159899999999999  4.9181999999999997 20.2679000000000009
  5.7852499999999996  4.6525299999999996 20.3975000000000009
  9.6315100000000005  6.8808199999999999 20.3032000000000004
  1.9109900000000000  7.0330100000000000 20.2218000000000018
  4.4546599999999996  7.1223999999999998 20.0825999999999993
  7.0615100000000002  7.0997500000000002 20.1979000000000006
  9.5597799999999999  3.3276300000000001 27.2656999999999989
  9.0843600000000002  3.2324000000000002 28.1420999999999992
  0.3803250000000000  3.1619100000000002 27.4334999999999987
  5.8378600000000000  0.7404470000000000 27.8892999999999986
  6.1106299999999996  1.6241699999999999 27.4983000000000004
  5.5886100000000001  9.0307300000000001 27.1261000000000010
  2.3191400000000000  4.4922199999999997  7.0218900000000000
  3.4149400000000001  2.4799199999999999 24.2801000000000009
  1.8412999999999999  4.3692500000000001  7.8967799999999997
  2.8943300000000001  7.3245500000000003 23.3939999999999984
  2.9785800000000000  7.2436499999999997 22.4284999999999997
  3.4186399999999999  6.5845799999999999 23.7179000000000002
  9.6077899999999996  4.5536700000000003 23.2271999999999998
  9.8938799999999993  5.4721000000000002 23.2021000000000015
  9.1069600000000008  4.4508299999999998 22.4059999999999988
  8.9629200000000004  0.6772740000000000  6.1821099999999998
  1.7544100000000000  1.0883100000000001  1.7436100000000001
  8.7781599999999997  1.5194700000000001  6.5292599999999998
  6.8425900000000004  8.4044000000000008  3.7193100000000001
  2.3292299999999999  6.2863600000000002 28.1875000000000000
  7.3411099999999996  7.6359300000000001  3.4840700000000000
  1.4851700000000001  1.6664200000000000  1.0436900000000000
  7.1832900000000004  6.5267099999999996 22.6945000000000014
  0.5133650000000000  1.6228899999999999  0.9675550000000001
  3.4671699999999999  4.6536000000000000 30.3350000000000009
  3.1660900000000001  4.1768999999999998  0.9890850000000000
  0.4144090000000000  7.3877899999999999 22.3201999999999998
  0.2945460000000000  7.0853799999999998 23.2404000000000011
  1.2903300000000000  6.9641900000000003 23.3990000000000009
  2.8156400000000001  8.3164400000000001  2.9096099999999998
  6.6952900000000000  6.7758200000000004 23.5548999999999999
  6.8670900000000001  7.7651300000000001 23.6470999999999982
  0.5365360000000000  0.6005050000000000  5.7761600000000000
  3.7081300000000001  1.6141500000000000 29.2860000000000014
  4.3594400000000002  1.2411799999999999 28.6521000000000008
  4.0775600000000001  1.5922000000000001 30.1797000000000004
  3.0473400000000002  6.9335500000000003 28.2206000000000010
  8.7822999999999993  0.1070040000000000  6.9332500000000001
  3.0852800000000000  7.4679799999999998 27.3750000000000000
  6.0221099999999996  6.4936699999999998  5.5851600000000001
  5.7013199999999999  5.6467499999999999  5.8858699999999997
  5.5197599999999998  7.1536999999999997  6.1728500000000004
  3.8837799999999998  2.4478399999999998 25.0740000000000016
  7.0950600000000001  8.7648499999999991  4.5671400000000002
  3.6867899999999998  1.5252699999999999 25.4187000000000012
  4.2456699999999996  3.3806600000000002  2.5283400000000000
  3.6639599999999999  3.1706799999999999  3.2759200000000002
  1.1969300000000000  0.2309480000000000 28.9182999999999986
  1.9432300000000000 -0.3663950000000000 28.7162000000000006
  1.4608600000000000  0.6482270000000000 29.7754000000000012
  6.3455199999999996  2.9403899999999998 26.2996000000000016
  5.5096900000000000  3.0266899999999999 25.7776999999999994
  7.0239700000000003  2.6471700000000000 25.6920999999999999
  4.4197499999999996  7.6269000000000000  0.6010980000000000
  3.9706700000000001  7.6087899999999999 29.8832999999999984
  4.1087100000000003  6.9521499999999996  1.2315700000000001
  4.6927599999999998  2.5766100000000001  2.2528299999999999
  2.8195399999999999  0.5022660000000000  3.0218900000000000
  2.5005600000000001  0.5305800000000001  3.9321799999999998
  1.9525800000000000  3.1409099999999999  5.3083700000000000
  2.0530100000000000  3.0908099999999998  4.3027400000000000
  1.1330400000000000  3.2590400000000002  3.8943099999999999
  3.0169199999999998  4.2360699999999998 29.5351999999999997
  2.1251000000000002  6.6421599999999996  2.9644100000000000
  1.5979399999999999  6.3972600000000002  3.7611200000000000
  2.9135599999999999  6.0979900000000002  2.8588800000000001
  1.4970200000000000  0.5150500000000000  5.9086600000000002
  1.5319400000000001  0.7474560000000000  6.8139000000000003
  0.3796450000000000  5.8563400000000003 27.9131999999999998
 10.1137999999999995  5.0443499999999997 27.5934999999999988
  1.8410400000000000  3.5132800000000000 22.6560999999999986
  2.1705800000000002  2.6163300000000000 22.8369000000000000
  8.7440999999999995  3.2946000000000000  4.1567200000000000
  2.7854199999999998  2.4588999999999999 22.0701000000000001
  9.2320100000000007  3.0946099999999999  3.3620800000000002
  9.9704700000000006  6.6144100000000003 27.6024999999999991
  8.8657599999999999  3.7350599999999998  2.7404899999999999
  9.3672699999999995  8.1396899999999999 27.1847999999999992
  9.8541299999999996  8.8545599999999993 27.6720000000000006
  9.5734899999999996  8.4968299999999992 26.2774000000000001
  8.7731200000000005  0.9618250000000000  1.1300800000000000
  8.2929999999999993  0.1948880000000000  0.7501340000000000
  7.9112700000000000  5.3989900000000004 26.6858000000000004
  7.0680800000000001  5.7755000000000001 26.9334999999999987
  8.3325499999999995  2.6082100000000001 30.1524999999999999
  7.8234199999999996  3.0571299999999999 29.4333999999999989
  8.1595099999999992  1.3799399999999999  1.7328399999999999
  7.4980000000000002  3.8985699999999999 29.7859000000000016
  8.1377100000000002  3.4784700000000002  5.7625799999999998
  8.1281099999999995  4.3461900000000000  6.1950399999999997
  7.3192500000000003  3.0280399999999998  5.9730400000000001
  8.6626600000000007  3.5628600000000001 24.2088999999999999
  8.6521100000000004  2.7546700000000000 24.7847000000000008
  0.6880039999999999  5.9392199999999997  0.0034614900000000
  9.1594899999999999  2.9813900000000002 25.5429999999999993
  0.4353060000000000  5.8033099999999997  0.9507220000000000
  1.1312000000000000  6.0964799999999997  1.5018000000000000
  1.8627300000000000  0.3190580000000000 25.7224000000000004
  7.0245600000000001  0.8076740000000000 23.4259999999999984
  7.1621300000000003  1.1398500000000000 22.5213999999999999
  7.3570799999999998  1.5337200000000000 23.9703000000000017
  7.3038900000000000  8.0067699999999995 29.7608999999999995
  6.6696600000000004  8.7179000000000002 29.4806999999999988
  4.9363999999999999  0.2908520000000000  6.8193799999999998
  4.3408400000000000  8.2468400000000006  6.7587999999999999
  8.9095999999999993  5.8400100000000004  1.8038799999999999
  4.0488499999999998  8.0263500000000008  7.6770600000000000
  8.0720700000000001  5.5468999999999999  2.2126299999999999
  7.9921199999999999  8.0246099999999991 29.0242000000000004
  7.4641900000000003  5.3799799999999998  1.4534300000000000
  4.6820199999999996  4.9581299999999997 24.0988000000000007
  4.3742700000000001  4.3296799999999998 23.4126000000000012
  5.3849900000000002  5.5922799999999997 23.7838999999999992
  5.6730400000000003  1.0965100000000001  1.4594600000000000
  6.5191299999999996  4.9696300000000004 27.0542000000000016
  6.4810200000000000  1.5053700000000001  7.0946199999999999
  6.1464100000000004  1.6216400000000000  6.1889700000000003
  6.2897699999999999  6.0606200000000001 29.7728999999999999
  5.4886799999999996  2.3440900000000000  6.2870100000000004
  6.2923299999999998  5.1378300000000001 -0.0567853000000000
  5.0533999999999999  0.3971140000000000  1.2812699999999999
  5.3000900000000000  4.9748700000000001 30.1108000000000011
  5.4156599999999999  7.6489700000000003 26.0625999999999998
  6.1460900000000001  6.9702900000000003 26.1003000000000007
  5.0251999999999999  7.6936400000000003 25.1510999999999996
  1.9700000000000000  5.3016500000000004  6.5718600000000000
  4.2225900000000003  5.5218999999999996 27.2236000000000011
  4.1396400000000000  4.6655600000000002 26.7315000000000005
  5.0292300000000001  6.5415299999999998  3.5836100000000002
  4.2199400000000002  4.7870999999999997 25.7369999999999983
  4.5941200000000002  6.1781499999999996  2.8272499999999998
  4.8987600000000002  5.3113200000000003  2.4529800000000002
  2.6823800000000002  8.6401800000000009 25.9525000000000006
  2.8348200000000001  8.0674200000000003 25.1884000000000015
  6.0340100000000003  0.6640960000000000  2.2828700000000000
  1.2202700000000000  6.5901899999999998  5.6760500000000000
  0.3448490000000000  6.3734200000000003  6.0542100000000003
  1.5606000000000000  7.4933399999999999  5.9570600000000002
  8.7599099999999996  6.5069900000000001  6.6372200000000001
  8.5732800000000005  6.5230499999999996  7.5895999999999999
  7.9512600000000004  6.5498099999999999  6.0711599999999999
  0.1207270000000000  0.4188680000000000 24.7831000000000010
  0.0238592000000000 -0.3393070000000000 24.1646999999999998
  9.7260600000000004  1.1751600000000000 24.4420000000000002
  5.0042499999999999  3.9292400000000001  6.6585799999999997
  5.3610499999999996  4.0718899999999998  7.5259999999999998
  3.9763199999999999  4.0852000000000004  6.8635700000000002
  2.1600199999999998  3.2854199999999998 27.9064000000000014
  2.6609300000000000  2.5508099999999998 28.3400999999999996
  2.7902200000000001  3.8042799999999999 27.3439000000000014
