Cu O  H  O  H  O  H  O  H  O  H  O  H  O  H  O  H  O  H  O  H  O  H  O  H  O  H  O  H  O  H  O  H  O  H  O  H  O  H  O  H  O  H  O  H  O  H  O  H  O  H  O  H  O  H  O  H  O  H  O  H  O  H  O  H  O  H  O  H  O  H  O  H  O  H  O  H  O  H  O  H  O  H  O  H  O  H  O  H  O  H  O  H  O  H  O  H  O  H  O  H 
 1.0000000000000000
    10.1403771778044529    0.0000000000000000    0.0000000000000000
     0.0000000000000000    8.7818242399346058    0.0000000000000000
     0.0000000000000000    0.0000000000000000   30.1311271579000000
 Cu  O   H   O   H   O   H   O   H   O   H   O   H   O   H   O   H   O   H   O   H   O   H   O   H   O   H   O   H   O   H   O   H   O   H   O   H   O   H   O   H   O   H   O   H   O   H   O   H   O   H   O   H   O   H   O   H   O   H   O   H   O   H   O   H   O   H   O   H   O   H   O   H   O   H   O   H   O   H   O   H   O   H   O   H   O   H   O   H   O   H   O   H   O   H   O   H   O   H   O   H  
  96   1   2   1   2   1   2   1   2   1   2   1   2   1   2   1   2   1   2   1   2   1   2   1   2   1   2   1   2   1   2   1   1   1   2   1   2   1   3   1   2   1   2   1   2   1   1   1   2   1   2   1   2   1   2   1   2   1   1   1   2   1   3   1   2   1   2   1   2   1   2   1   2   1   2   1   2   1   2   1   2   1   2   1   4   1   2   1   1   1   2   1   2   1   2   1   2   1   2   1   2
Cartesian
  6.8490799999999998  1.0323000000000000  9.8795500000000001
  9.5521799999999999  1.0421300000000000  9.7705599999999997
  1.8842300000000001  0.9513870000000000 10.0076000000000001
  4.3577500000000002  1.1379600000000001  9.9222300000000008
  8.2891499999999994  3.0986500000000001  9.7141500000000001
  0.6648930000000000  3.2376999999999998  9.7258300000000002
  3.2254100000000001  3.2139000000000002  9.7697599999999998
  5.7587900000000003  3.2887700000000000  9.9475899999999999
  9.5836900000000007  5.4009900000000002  9.8369099999999996
  2.0402600000000000  5.4013700000000000  9.8669300000000000
  4.4288200000000000  5.4077299999999999  9.8648299999999995
  6.9931299999999998  5.4815899999999997  9.8178800000000006
  0.6838030000000000  7.6132000000000000  9.8524999999999991
  3.1939299999999999  7.5555599999999998  9.8760600000000007
  5.5569100000000002  7.5800200000000002  9.9874500000000008
  8.2860600000000009  7.5750299999999999  9.9817900000000002
  5.6777600000000001  1.8256200000000000 12.0447000000000006
  8.3285699999999991  1.7962800000000001 11.9741000000000000
  0.6103060000000000  1.9770700000000001 11.8620000000000001
  3.1693199999999999  1.8410800000000000 11.8707999999999991
  6.9527000000000001  4.0072200000000002 11.9884000000000004
  9.6344399999999997  4.1430499999999997 12.0070999999999994
  2.0380500000000001  3.9909500000000002 11.8503000000000007
  4.3864599999999996  4.0248299999999997 11.8876000000000008
  8.1892700000000005  6.1646799999999997 12.0082000000000004
  0.6133920000000000  6.1520099999999998 11.9586000000000006
  3.2823400000000000  6.1763599999999999 12.0027000000000008
  5.7090500000000004  6.2219100000000003 12.0699000000000005
  9.5385899999999992  8.5829900000000006 12.0259000000000000
  1.7848400000000000  8.2988300000000006 12.0295000000000005
  4.4810800000000004  8.5074600000000000 11.9269999999999996
  6.8573399999999998  8.4018700000000006 12.0737000000000005
  5.7039600000000004  0.3659090000000000 14.0305999999999997
  8.2390600000000003  0.3659090000000000 14.0305999999999997
  0.6337739999999999  0.3659090000000000 14.0305999999999997
  3.1688700000000001  0.3659090000000000 14.0305999999999997
  6.9715100000000003  2.5613700000000001 14.0305999999999997
  9.5066000000000006  2.5613700000000001 14.0305999999999997
  1.9013199999999999  2.5613700000000001 14.0305999999999997
  4.4364200000000000  2.5613700000000001 14.0305999999999997
  8.2390600000000003  4.7568200000000003 14.0305999999999997
  0.6337739999999999  4.7568200000000003 14.0305999999999997
  3.1688700000000001  4.7568200000000003 14.0305999999999997
  5.7039600000000004  4.7568200000000003 14.0305999999999997
  9.5066000000000006  6.9522800000000000 14.0305999999999997
  1.9013199999999999  6.9522800000000000 14.0305999999999997
  4.4364200000000000  6.9522800000000000 14.0305999999999997
  6.9715100000000003  6.9522800000000000 14.0305999999999997
  6.9715100000000003  1.0977300000000001 16.1005000000000003
  9.5066000000000006  1.0977300000000001 16.1005000000000003
  1.9013199999999999  1.0977300000000001 16.1005000000000003
  4.4364200000000000  1.0977300000000001 16.1005000000000003
  8.2390600000000003  3.2931800000000000 16.1005000000000003
  0.6337739999999999  3.2931800000000000 16.1005000000000003
  3.1688700000000001  3.2931800000000000 16.1005000000000003
  5.7039600000000004  3.2931800000000000 16.1005000000000003
  9.5066000000000006  5.4886400000000002 16.1005000000000003
  1.9013199999999999  5.4886400000000002 16.1005000000000003
  4.4364200000000000  5.4886400000000002 16.1005000000000003
  6.9715100000000003  5.4886400000000002 16.1005000000000003
  0.6337739999999999  7.6840999999999999 16.1005000000000003
  3.1688700000000001  7.6840999999999999 16.1005000000000003
  5.7039600000000004  7.6840999999999999 16.1005000000000003
  8.2390600000000003  7.6840999999999999 16.1005000000000003
  5.7398400000000001  1.8367800000000001 18.2074999999999996
  8.2484599999999997  1.8522200000000000 18.1055999999999990
  0.5735620000000000  1.9383500000000000 18.1393999999999984
  3.1006700000000000  1.8824099999999999 18.1518000000000015
  7.0501399999999999  4.0835900000000001 18.1750000000000007
  9.4718599999999995  4.0619699999999996 18.2008000000000010
  1.8997800000000000  4.1640300000000003 18.2524000000000015
  4.4178100000000002  4.0367499999999996 18.1671000000000014
  8.3024799999999992  6.2949900000000003 18.2002999999999986
  0.6458520000000000  6.2885200000000001 18.1738999999999997
  3.1455199999999999  6.3258099999999997 18.1574999999999989
  5.7186899999999996  6.2292899999999998 18.1079000000000008
  9.4716400000000007  8.3810900000000004 18.2796999999999983
  1.7803400000000000  8.5020000000000007 18.1400000000000006
  4.3637699999999997  8.4096700000000002 18.1238999999999990
  6.9768900000000000  8.4614700000000003 18.1493000000000002
  5.7099700000000002  0.2614820000000000 20.1773999999999987
  8.0648900000000001  0.2854630000000000 20.1829999999999998
  0.4798760000000000  0.3956360000000000 20.2130000000000010
  3.0748700000000002  0.3679240000000000 20.1345999999999989
  6.9092700000000002  2.7221400000000000 20.2012000000000000
  9.5107099999999996  2.5708899999999999 20.1252999999999993
  1.8714599999999999  2.5145200000000001 20.1629000000000005
  4.3440599999999998  2.6670500000000001 20.1584000000000003
  8.2252899999999993  4.7432200000000000 20.2236000000000011
  0.5508540000000000  4.8315799999999998 20.1811000000000007
  3.1285900000000000  4.9252200000000004 20.2297000000000011
  5.6949699999999996  4.8116000000000003 20.2627999999999986
  9.2544699999999995  6.9630299999999998 20.4267000000000003
  1.7577799999999999  7.0291699999999997 20.2631000000000014
  4.3651499999999999  6.9927599999999996 20.3701000000000008
  6.8655400000000002  6.9107099999999999 20.2181999999999995
  5.7941399999999996  3.4841099999999998 29.7669999999999995
  6.4312899999999997  4.1500899999999996 29.5951999999999984
  6.2742899999999997  2.6936399999999998 30.0777999999999999
  4.3176399999999999  7.7231800000000002 27.0269000000000013
  4.9233700000000002  7.7648599999999997 26.2623999999999995
  3.4308100000000001  7.4538300000000000 26.7374000000000009
  0.1977390000000000  5.3171299999999997 24.6085999999999991
  5.1476800000000003  3.0258799999999999 26.3515000000000015
  1.1943600000000001  5.6757799999999996 24.7702999999999989
  1.7286200000000000  5.5807000000000002 29.5909000000000013
  2.6144599999999998  5.1625300000000003 29.4615000000000009
  1.1192800000000001  4.8731299999999997 29.8489000000000004
  6.9214399999999996  3.8948299999999998 26.7937000000000012
  7.3126899999999999  3.1707500000000000 27.3314999999999984
  7.1567999999999996  3.8228300000000002 25.8135000000000012
  6.9079699999999997  1.2509900000000000 23.1494999999999997
  8.2973499999999998  5.2704599999999999 28.6494000000000000
  6.8036399999999997  1.3866900000000000 22.2508000000000017
  3.7806000000000002  5.1434499999999996  4.8974000000000002
  5.4710200000000002  7.9308399999999999 29.7028999999999996
  3.2044500000000000  4.3697900000000001  5.0426500000000001
  7.9089200000000002  5.1478200000000003 29.5015000000000001
  8.6382899999999996  0.5195140000000000 23.4847999999999999
  8.6748499999999993  4.7233999999999998 30.0401999999999987
  6.7473200000000002  3.8713500000000001 24.1426000000000016
  7.0695899999999998  4.6815100000000003 23.6641000000000012
  1.0139000000000000  8.4971700000000006 23.0767999999999986
  1.8838699999999999  8.0577799999999993 23.2676000000000016
  2.2654700000000001  7.7942099999999996 22.4009999999999998
  0.0660409000000000  0.8232180000000000 25.4911999999999992
  9.4896899999999995  0.8998600000000000 23.8157999999999994
  9.6533499999999997  1.6711100000000001 23.2059999999999995
  5.0378900000000000  4.6075999999999997 27.9755000000000003
  1.4921000000000000  7.7061400000000004 27.5183000000000000
  1.6636899999999999  8.0235000000000003 28.4289999999999985
  0.9596030000000000  6.8960900000000001 27.6550000000000011
  5.5655000000000001  7.0123300000000004 30.0842999999999989
  6.8068499999999998  2.1735899999999999 23.4715999999999987
  6.3308400000000002  6.5424800000000003 29.7711000000000006
  0.6128410000000000  7.0374499999999998  3.1499199999999998
  0.2713880000000000  6.9702299999999999  2.2132800000000001
 10.1765000000000008  7.6939200000000003  3.6529699999999998
  4.4087899999999998  2.4897800000000001 26.5555999999999983
  4.6389899999999997  4.8516300000000001  5.2981900000000000
  4.1097299999999999  2.0734900000000001 25.6682999999999986
  0.0181326000000000  1.3841300000000001  0.8744980000000000
 10.2009000000000007  0.4651930000000000  0.5169560000000000
  6.4222200000000003  8.1120500000000000 25.3597000000000001
  6.2648000000000001 -0.0107487000000000 24.6380000000000017
  6.9996799999999997  7.4771099999999997 24.8780000000000001
  2.2101400000000000  8.2579100000000007 30.0352999999999994
  3.0170400000000002 -0.0337676000000000 29.7415999999999983
  2.5370400000000002  7.3583400000000001 30.2458999999999989
  7.7108400000000001  6.6813399999999996  6.2216500000000003
  6.7483899999999997  6.8181099999999999  6.0054200000000000
  7.8116199999999996  6.9964100000000000  7.2003000000000004
  0.7932290000000000  1.6039500000000000  1.4388099999999999
  0.1035080000000000  0.8570300000000000 26.4711999999999996
  0.7386470000000001  8.9903899999999997 26.7900999999999989
  2.2623700000000002  2.2893100000000000  5.8140799999999997
  2.0623399999999998  3.0882800000000001  5.3013599999999999
  1.1644600000000001  3.3732899999999999  5.5744699999999998
  5.7755700000000001  3.8507899999999999 23.9030999999999985
  4.3653700000000004  0.7625500000000000 29.0306999999999995
  4.6998400000000000  1.6463200000000000 28.7837999999999994
  4.2198500000000001  0.3699010000000000 28.1321000000000012
  4.2521699999999996  5.1473599999999999 28.2286999999999999
  4.4354899999999997  6.0853299999999999 28.0357999999999983
  3.4904600000000001  6.9041800000000002  2.7832900000000000
  2.5817899999999998  7.1255600000000001  2.9955599999999998
  2.5616699999999999  6.9910199999999998 24.4551000000000016
  2.6889699999999999  6.2779600000000002 25.0638000000000005
 10.2774999999999999  1.2500000000000000  7.5282000000000000
  3.2616999999999998  5.7568900000000003 24.5207000000000015
  0.1966870000000000  1.2476000000000000  6.5588400000000000
  3.6532700000000000  6.3331799999999996  3.5894900000000001
  9.7473799999999997  1.9870399999999999  6.3275800000000002
 10.0408000000000008  4.3931600000000000  3.7078000000000002
  9.1082900000000002  4.2534299999999998  3.9722700000000000
  0.1400700000000000  5.3101200000000004  3.5623900000000002
  4.3337399999999997  4.7273199999999997 23.3159999999999989
  4.7625900000000003  5.4369699999999996 22.8161999999999985
  7.3379799999999999  0.3961090000000000  3.3006899999999999
  6.9107399999999997  1.1493500000000001  2.9394399999999998
  9.8403899999999993  3.9413499999999999  7.6110699999999998
  9.8031299999999995  4.2015399999999996  6.6542300000000001
  3.9257499999999999  4.2628700000000004 22.5955000000000013
  9.4306900000000002  5.1181200000000002  6.6848000000000001
  1.6597800000000000  2.8725200000000002 27.6341999999999999
  2.6002800000000001  2.8915199999999999 27.3734999999999999
  1.1725900000000000  2.3042799999999999 27.0012000000000008
  7.1534899999999997  0.1880050000000000 26.9569000000000010
  7.6575300000000004  0.6386070000000000 27.7146000000000008
  6.5372300000000001  3.7933699999999999  4.3360700000000003
  8.5238200000000006  0.8849080000000000 27.3197000000000010
  7.2457200000000004  3.7599000000000000  3.5715499999999998
  7.2260999999999997  2.8109099999999998  3.2438899999999999
  6.3319799999999997  3.2335500000000001  6.2732400000000004
  7.2347799999999998  6.7474800000000004  2.3072699999999999
  6.6578999999999997  7.0065700000000000  1.5860399999999999
  6.7148500000000002  6.1343199999999998  2.8249800000000000
  0.8855970000000000  3.2261099999999998 22.9432000000000009
  0.9641380000000001  3.7271700000000001 21.9920000000000009
  4.1663800000000002  8.4682399999999998  2.8192499999999998
  4.5077499999999997  0.6416620000000000  2.6021800000000002
  3.0468500000000001  0.9433840000000000 23.5748999999999995
  3.6705700000000001  1.1210100000000001  2.5266700000000002
  3.7357200000000002  1.6245499999999999 23.6114999999999995
  1.5057000000000000  2.5211899999999998 22.9862000000000002
  4.4189400000000001  1.2320300000000000 23.0004999999999988
  2.1935500000000001  2.3148800000000000  2.4965999999999999
  1.8691100000000000  2.6315400000000002  3.3116599999999998
  2.7095500000000001  3.0367400000000000  2.1009699999999998
  6.9477900000000004  1.3308800000000001  0.0858238000000000
  5.9434100000000001  0.9361770000000000  2.9087200000000002
  2.1391600000000000  6.9881099999999998  7.3853400000000002
  2.1827999999999999  7.3513999999999999  6.4743500000000003
  8.0821500000000004  6.3413399999999998 22.9295000000000009
  1.4795499999999999  7.9316000000000004  6.2968500000000001
  7.9938900000000004  6.3586799999999997 23.8933999999999997
  7.4326299999999996  1.2522300000000000  0.9066900000000000
  8.9312799999999992  6.1522399999999999 24.1901000000000010
  9.8322800000000008  4.0257199999999997  0.6750830000000000
  9.9006500000000006  3.0693500000000000  0.4809100000000000
  9.8238299999999992  4.0796000000000001  1.6314599999999999
  0.3933930000000000  4.5830599999999997 23.9768000000000008
  8.5845699999999994  7.9821099999999996  5.0509000000000004
  9.0800000000000001  8.7139799999999994  4.7067300000000003
  0.7396760000000000  4.5841300000000000 27.4844000000000008
  9.5355699999999999  0.2143100000000000  5.5175599999999996
  0.0850013000000000  5.3648699999999998 27.3826000000000001
 10.0585000000000004  5.3966099999999999 26.3951999999999991
  6.0814300000000001  4.1200599999999996  5.9413000000000000
  6.7721999999999998  4.6514699999999998  6.4626700000000001
  7.4870400000000004  0.8913680000000000 29.5467000000000013
  3.4344100000000002  0.8555640000000000  6.7385400000000004
  3.1266300000000000  1.0061000000000000  7.6304999999999996
  3.2480699999999998 -0.1261300000000000  6.6844400000000004
  6.7634999999999996  1.5139000000000000  6.5946400000000001
  6.9064300000000003  0.9708970000000000  7.4049300000000002
  5.9917400000000001  0.9680090000000000  6.2417800000000003
  5.1367900000000004  7.3627700000000003  6.0213799999999997
  4.8288200000000003  7.5635500000000002  6.9105800000000004
  4.4135200000000001  6.8529600000000004  5.6754699999999998
  4.2852499999999996  3.8827900000000000  1.7182400000000000
  5.0724600000000004  3.9765000000000001  1.0266900000000001
  4.1446500000000004  4.7834599999999998  2.0057800000000001
  9.7290899999999993  7.3531300000000002  0.5794850000000000
  8.9801500000000001  6.7602700000000002  0.8609100000000000
  0.1469160000000000  6.8614400000000000 -0.0391536000000000
