Cu  O  H  O  H  O  H  O  H  O  H  O  H  O  H  O  H  O  H  O  H  O  H  O  H  O  H  O  H  O  H  O  H  O  H  O  H  O  H  O  H  O  H  O  H  O  H  O  H  O  H  O  H  O  H  O  H  O  H  O  H  O  H  O  H  O  H  O  H  O  H  O  H  O  H  O  H  O  H  O  H  O  H  O  H  O  H  O  H  O  H  O  H  O  H  O  H  O  H  O  H 
 1.0000000000000000
    10.1403771778044529    0.0000000000000000    0.0000000000000000
     0.0000000000000000    8.7818242399346058    0.0000000000000000
     0.0000000000000000    0.0000000000000000   30.1311271579000000
 Cu  O   H   O   H   O   H   O   H   O   H   O   H   O   H   O   H   O   H   O   H   O   H   O   H   O   H   O   H   O   H   O   H   O   H   O   H   O   H   O   H   O   H   O   H   O   H   O   H   O   H   O   H   O   H   O   H   O   H   O   H   O   H   O   H   O   H   O   H   O   H   O   H   O   H   O   H   O   H   O   H   O   H   O   H   O   H   O   H   O   H   O   H   O   H   O   H   O   H   O   H  
  96   1   2   1   2   1   2   1   2   1   2   1   2   1   2   1   2   1   2   1   2   1   2   1   2   1   2   1   2   1   2   1   1   1   2   1   2   1   3   1   2   1   2   1   2   1   1   1   2   1   2   1   2   1   2   1   2   1   1   1   2   1   3   1   2   1   2   1   2   1   2   1   2   1   2   1   2   1   2   1   2   1   2   1   4   1   2   1   1   1   2   1   2   1   2   1   2   1   2   1   2
Cartesian
  7.0461400000000003  0.9312400000000000 10.0367999999999995
  9.5787399999999998  1.1088499999999999  9.7020000000000000
  1.9626100000000000  1.0469900000000001  9.8305100000000003
  4.4549399999999997  0.9833550000000000  9.8548899999999993
  8.2327100000000009  3.1923699999999999  9.7904999999999998
  0.8135730000000000  3.2265500000000000  9.9940700000000007
  3.2579699999999998  3.2358099999999999  9.8451400000000007
  5.6572500000000003  3.2568299999999999  9.9226399999999995
  9.5785099999999996  5.3233400000000000 10.0794999999999995
  2.0521900000000000  5.3266499999999999  9.9446100000000008
  4.5426599999999997  5.3098400000000003  9.7368299999999994
  7.1562200000000002  5.4379600000000003  9.8112499999999994
  0.8095860000000000  7.7153000000000000 10.0432000000000006
  3.3869600000000002  7.5794199999999998  9.9890699999999999
  5.6872100000000003  7.6909099999999997  9.8920999999999992
  8.2781800000000008  7.5678500000000000  9.8802000000000003
  5.7816400000000003  1.8101700000000001 11.9482999999999997
  8.2633700000000001  1.9545399999999999 11.8727999999999998
  0.5102220000000000  1.7698000000000000 11.8963000000000001
  3.0930100000000000  1.7956799999999999 11.9274000000000004
  6.9602899999999996  4.0418599999999998 11.8832000000000004
  9.6089000000000002  3.9558000000000000 12.0371000000000006
  2.0104700000000002  4.0775100000000002 12.0523000000000007
  4.4799600000000002  3.9902400000000000 12.0350000000000001
  8.3056199999999993  6.2638900000000000 11.8988999999999994
  0.6750930000000001  6.2206400000000004 12.0457999999999998
  3.3777499999999998  6.2206400000000004 11.9400999999999993
  5.7967199999999997  6.2253400000000001 12.0107999999999997
  9.3488199999999999  8.4617400000000007 11.7795000000000005
  1.9778100000000001  8.3030899999999992 12.0203000000000007
  4.4434800000000001  8.4687099999999997 11.9517000000000007
  6.8399000000000001  8.4329599999999996 12.0408000000000008
  5.7039600000000004  0.3659090000000000 14.0305999999999997
  8.2390600000000003  0.3659090000000000 14.0305999999999997
  0.6337739999999999  0.3659090000000000 14.0305999999999997
  3.1688700000000001  0.3659090000000000 14.0305999999999997
  6.9715100000000003  2.5613700000000001 14.0305999999999997
  9.5066000000000006  2.5613700000000001 14.0305999999999997
  1.9013199999999999  2.5613700000000001 14.0305999999999997
  4.4364200000000000  2.5613700000000001 14.0305999999999997
  8.2390600000000003  4.7568200000000003 14.0305999999999997
  0.6337739999999999  4.7568200000000003 14.0305999999999997
  3.1688700000000001  4.7568200000000003 14.0305999999999997
  5.7039600000000004  4.7568200000000003 14.0305999999999997
  9.5066000000000006  6.9522800000000000 14.0305999999999997
  1.9013199999999999  6.9522800000000000 14.0305999999999997
  4.4364200000000000  6.9522800000000000 14.0305999999999997
  6.9715100000000003  6.9522800000000000 14.0305999999999997
  6.9715100000000003  1.0977300000000001 16.1005000000000003
  9.5066000000000006  1.0977300000000001 16.1005000000000003
  1.9013199999999999  1.0977300000000001 16.1005000000000003
  4.4364200000000000  1.0977300000000001 16.1005000000000003
  8.2390600000000003  3.2931800000000000 16.1005000000000003
  0.6337739999999999  3.2931800000000000 16.1005000000000003
  3.1688700000000001  3.2931800000000000 16.1005000000000003
  5.7039600000000004  3.2931800000000000 16.1005000000000003
  9.5066000000000006  5.4886400000000002 16.1005000000000003
  1.9013199999999999  5.4886400000000002 16.1005000000000003
  4.4364200000000000  5.4886400000000002 16.1005000000000003
  6.9715100000000003  5.4886400000000002 16.1005000000000003
  0.6337739999999999  7.6840999999999999 16.1005000000000003
  3.1688700000000001  7.6840999999999999 16.1005000000000003
  5.7039600000000004  7.6840999999999999 16.1005000000000003
  8.2390600000000003  7.6840999999999999 16.1005000000000003
  5.6836799999999998  1.8909199999999999 18.1794000000000011
  8.3501100000000008  1.7464200000000001 18.2007000000000012
  0.6953090000000000  1.7963199999999999 18.1479999999999997
  3.2732500000000000  1.7700800000000001 18.0863000000000014
  6.9496599999999997  3.9974699999999999 18.2651000000000003
  9.5891999999999999  3.8826100000000001 18.1278000000000006
  2.0137999999999998  3.8561200000000002 18.2134000000000000
  4.3770400000000000  3.9232499999999999 18.1024999999999991
  8.2644900000000003  6.1296299999999997 18.1535000000000011
  0.6140500000000000  6.1486499999999999 18.1753000000000000
  3.2852399999999999  6.1867099999999997 18.1199000000000012
  5.8484400000000001  6.2554499999999997 18.2016999999999989
  9.4352999999999998  8.3721800000000002 18.2445999999999984
  1.9617500000000001  8.4213699999999996 18.1967999999999996
  4.4900900000000004  8.2567799999999991 18.1952999999999996
  6.9468399999999999  8.4412900000000004 18.1118999999999986
  5.7130799999999997  0.2034110000000000 20.1556999999999995
  8.2529100000000000  0.3874220000000000 20.2327000000000012
  0.5422240000000000  0.3855820000000000 20.2079999999999984
  3.0847799999999999  0.3679410000000000 20.2119000000000000
  7.0274599999999996  2.5410100000000000 20.2923000000000009
  9.5820100000000004  2.5011399999999999 20.3185000000000002
  1.9805500000000000  2.4211100000000001 20.2904000000000018
  4.5464500000000001  2.4846900000000001 20.2241999999999997
  8.3580500000000004  4.5752800000000002 20.2918999999999983
  0.7436370000000000  4.6373300000000004 20.0488000000000000
  3.1905700000000001  4.6426499999999997 20.2101000000000006
  5.8144400000000003  4.7917500000000004 20.2606000000000002
  9.5467899999999997  6.8903999999999996 20.2700999999999993
  1.8711700000000000  6.9654800000000003 20.1392999999999986
  4.4323100000000002  6.9360099999999996 20.4018000000000015
  7.0025300000000001  6.8395700000000001 20.2750999999999983
  7.6833900000000002  5.0138999999999996  3.1088300000000002
  6.8670299999999997  4.8408400000000000  2.6264200000000000
  8.0282099999999996  4.1475499999999998  3.2450999999999999
  2.5813199999999998  8.0592900000000007 27.2345000000000006
  2.4314300000000002  7.7432600000000003 26.3042000000000016
  2.2042400000000000  7.3034299999999996 27.8058000000000014
  7.4977099999999997  3.4949800000000000 24.5399999999999991
  1.5473100000000000  0.5736700000000000 27.5096999999999987
  8.3028200000000005  4.0506200000000003 24.3628999999999998
  2.2365699999999999  3.4718800000000001  0.0641595000000000
  2.1643900000000000  3.5874299999999999  1.0487000000000000
  1.6687500000000000  2.7212999999999998 30.0179000000000009
  2.2903600000000002  7.1701400000000000 24.8277999999999999
  2.0214500000000002  6.3222899999999997 24.5372999999999983
  2.7663899999999999  7.6524900000000002 24.0995999999999988
  8.6663099999999993  1.2123100000000000 23.2939000000000007
  5.6986299999999996  2.0056400000000001 29.3358999999999988
  8.1569000000000003  2.0065300000000001 23.4558999999999997
  8.1933399999999992  2.2198600000000002  2.4751699999999999
  4.2246800000000002  5.7570800000000002  3.5246000000000000
  8.6510800000000003  2.3878400000000002  3.3041700000000001
  6.3923500000000004  1.4028700000000001 28.9615000000000009
  6.6082200000000002  6.8706199999999997 24.2068000000000012
  6.0498000000000003  0.5067660000000000 28.7354999999999983
  8.3296700000000001  7.4968899999999996 24.2938000000000009
  8.5530100000000004  8.3583200000000009 23.8963999999999999
  4.2075300000000002  3.5738799999999999 23.9057999999999993
  4.4471299999999996  4.3060700000000001 23.3048999999999999
  4.3021200000000004  3.9981000000000000 22.3816999999999986
  8.1948100000000004  5.6235400000000002 27.7700999999999993
  5.6191599999999999  6.7924699999999998 24.4186000000000014
  5.2566199999999998  5.9845899999999999 24.0224000000000011
  4.6037299999999997  7.7675799999999997 29.6749000000000009
  4.2819099999999999  4.3848500000000001 27.1494000000000000
  4.5610600000000003  4.9278700000000004 26.4433000000000007
  3.8436400000000002  3.6089899999999999 26.7519999999999989
  4.1641300000000001  6.7163899999999996  3.4906700000000002
  8.8021499999999993  1.2156400000000001 22.3035999999999994
  3.3568699999999998  7.0003500000000001  3.9149300000000000
  7.2425300000000004 -0.0489903000000000  1.0490200000000001
  7.8173599999999999  8.0707699999999996  0.6033560000000000
  6.9389900000000004  0.6511950000000000  0.3535740000000000
  0.8191440000000000  1.1585300000000001 27.7914999999999992
  8.0041799999999999  1.2875700000000001  2.4615000000000000
  0.1444810000000000  0.7814730000000000 27.2049999999999983
  1.6102099999999999  6.6408699999999996  4.7899099999999999
  1.3176500000000000  7.4757999999999996  5.1323200000000000
  9.4199999999999999  5.2326600000000001 23.5650000000000013
  0.1048760000000000  4.8068700000000000 23.9750000000000014
  9.7700800000000001  5.3082500000000001 22.7148000000000003
  3.4411100000000001  6.6875099999999996  0.7517740000000001
  3.8280900000000000  5.9337600000000004  1.2956500000000000
  2.9335700000000000  7.2387199999999998  1.3783900000000000
  8.1687399999999997  3.9514100000000001  6.6766600000000000
  7.1637300000000002  3.8233000000000001  6.7572000000000001
  8.3885299999999994  4.1093200000000003  7.5638199999999998
  1.4707699999999999  5.9692800000000004  5.4571600000000000
  8.9413000000000000  5.0863899999999997 28.1716000000000015
  8.8478300000000001  5.0264499999999996 29.1639000000000017
  0.3936330000000000  6.6342900000000000  2.9487800000000002
  9.8071199999999994  6.8018799999999997  2.2925399999999998
  9.1921499999999998  6.0429500000000003  2.4805799999999998
  9.0398399999999999  6.8303700000000003 24.0630999999999986
  8.0153499999999998  3.7672300000000001  0.2996930000000000
  8.0518000000000001  3.2098800000000001  1.0670900000000001
  7.5700399999999997  3.2471999999999999 29.7226999999999997
  4.9026899999999998  7.8909799999999999 28.7383999999999986
  4.1385600000000000  8.1898999999999997 28.1874000000000002
  9.3713800000000003  8.5364199999999997  7.0454400000000001
  8.8522700000000007  7.7002600000000001  7.1540699999999999
  2.9356599999999999  1.9535800000000001 24.4739000000000004
  3.6676799999999998  2.3720300000000001 24.9792999999999985
  9.3559699999999992  3.3503400000000001  4.9988799999999998
  4.5107699999999999  1.9212100000000001 25.0183999999999997
  9.8447499999999994  2.8433500000000000  4.3131700000000004
  9.7623400000000000  8.7936599999999991  7.9488500000000002
  0.0457039000000000  2.0313300000000001  4.6631200000000002
  4.8833200000000003  4.5443300000000004  1.9047200000000000
  4.7249499999999998  3.6393599999999999  2.0995800000000000
  5.1790000000000003  4.3638000000000003  0.9396610000000000
  1.4638400000000000  4.5355600000000003 24.6631999999999998
  1.6503099999999999  3.6616000000000000 24.2551999999999985
  0.1970940000000000  1.5395700000000001 29.4354000000000013
  0.2133550000000000  1.5986000000000000  0.2688310000000000
  7.5982099999999999  0.8464940000000000  5.9804500000000003
  7.1615599999999997  1.4729800000000000  5.4696100000000003
  1.5165000000000000  4.3546100000000001 25.6407999999999987
  6.6058599999999998  1.0105700000000000  4.8929900000000002
  0.9542890000000001  3.9396599999999999 27.4177000000000000
  0.1118980000000000  4.4182199999999998 27.5151000000000003
  0.7609480000000000  3.0407000000000002 27.1530999999999985
  8.8617000000000008  8.0841499999999993 25.9872000000000014
  9.2395600000000009  8.4053100000000001 26.8441000000000010
  3.9834900000000002  2.8985200000000000  4.3038100000000004
  8.7641299999999998  7.8761799999999997 27.4477000000000011
  3.8754499999999998  3.8309899999999999  4.4582199999999998
  4.3728600000000002  4.0014399999999997  5.3042600000000002
  1.1310199999999999  3.9660299999999999  3.5087500000000000
  4.0183299999999997  1.8891800000000001  2.6562000000000001
  4.7143699999999997  1.2264999999999999  2.9231300000000000
  3.2907999999999999  1.2480500000000001  2.3207200000000001
  1.2865200000000001  1.9984200000000001 23.6502000000000017
  0.3570930000000000  1.6544399999999999 23.6244000000000014
  4.8943199999999996  7.4649500000000000  7.6713699999999996
  4.9046200000000004  7.7054900000000002  6.7575900000000004
  6.0492200000000000  7.0823999999999998 27.6499999999999986
  5.8446199999999999  7.6189900000000002  6.4417600000000004
  6.7905100000000003  6.6698599999999999 27.1911999999999985
  1.5386700000000000  1.9501700000000000 22.6912999999999982
  6.5006399999999998  6.5154300000000003 26.2725000000000009
  5.8077399999999999  8.7108500000000006  3.3279700000000001
  6.3707700000000003  8.4880600000000008  2.5132400000000001
  5.1868999999999996  7.9423399999999997  3.3878599999999999
  9.3915400000000009  7.2524499999999996 29.8634999999999984
  9.7041100000000000  2.1688200000000002  0.6796540000000000
  1.5077799999999999  5.5340299999999996  7.6222099999999999
  1.1932300000000000  4.8796400000000002  6.9912799999999997
  4.7283299999999997  7.9895100000000001 23.8130999999999986
  0.9096060000000000  4.2618999999999998  7.6310900000000004
  3.9822099999999998  8.5615900000000007 23.4510000000000005
  9.8741199999999996  7.3075400000000004  0.5845470000000000
  4.0569100000000002  8.7961399999999994 22.4937000000000005
  1.8388500000000001  0.3599260000000000  2.1106099999999999
  1.4628800000000000  0.6424879999999999  2.9662600000000001
  1.2040100000000000  0.7254010000000000  1.4221400000000000
  6.8832100000000001  3.8369399999999998 23.8695999999999984
  7.9739300000000002  5.8541100000000004  5.9835799999999999
  7.8394800000000000  6.7699600000000002  5.7712899999999996
  6.5594299999999999  1.5081400000000000 26.7336999999999989
  7.7798200000000000  6.7198200000000003  4.8480900000000000
  6.2072599999999998  1.6746799999999999 25.8557999999999986
  6.6697400000000000  2.4556900000000002 25.5848000000000013
  1.7001900000000001  4.3421500000000002  2.8558200000000000
  2.6150300000000000  4.2102800000000000  3.2767700000000000
 10.0555000000000003  6.7779900000000000 29.3464999999999989
  0.9607869999999999  0.6352700000000000  5.3237300000000003
  0.2877520000000000  0.3354170000000000  5.9680099999999996
  1.6936400000000000  1.0217799999999999  5.9124999999999996
  5.5994299999999999  3.8464499999999999  6.6415199999999999
  5.4047999999999998  2.9231699999999998  6.3810500000000001
  5.0194200000000002  4.0913599999999999  7.4263700000000004
  3.3397999999999999  1.2458700000000000  6.6546200000000004
  3.1823700000000001  1.3359600000000000  7.5998200000000002
  4.1260700000000003  0.6331950000000000  6.6879600000000003
  4.6562200000000002  3.2259300000000000 29.4506000000000014
  4.5330800000000000  3.7513999999999998 28.6058999999999983
  3.7084700000000002  3.3058700000000001 29.8364000000000011
  1.6355200000000001  6.0507200000000001 28.8824000000000005
  2.0596899999999998  6.0930799999999996 29.7595999999999989
  1.6297200000000001  5.1376499999999998 28.5440000000000005
