Cu O  H  O  H  O  H  O  H  O  H  O  H  O  H  O  H  O  H  O  H  O  H  O  H  O  H  O  H  O  H  O  H  O  H  O  H  O  H  O  H  O  H  O  H  O  H  O  H  O  H  O  H  O  H  O  H  O  H  O  H  O  H  O  H  O  H  O  H  O  H  O  H  O  H  O  H  O  H  O  H  O  H  O  H  O  H  O  H  O  H  O  H  O  H  O  H  O  H  O  H 
 1.0000000000000000
    10.1403771778044529    0.0000000000000000    0.0000000000000000
     0.0000000000000000    8.7818242399346058    0.0000000000000000
     0.0000000000000000    0.0000000000000000   30.1311271579000000
 Cu  O   H   O   H   O   H   O   H   O   H   O   H   O   H   O   H   O   H   O   H   O   H   O   H   O   H   O   H   O   H   O   H   O   H   O   H   O   H   O   H   O   H   O   H   O   H   O   H   O   H   O   H   O   H   O   H   O   H   O   H   O   H   O   H   O   H   O   H   O   H   O   H   O   H   O   H   O   H   O   H   O   H   O   H   O   H   O   H   O   H   O   H   O   H   O   H   O   H   O   H  
  96   1   2   1   2   1   2   1   2   1   2   1   2   1   2   1   2   1   2   1   2   1   2   1   2   1   2   1   2   1   2   1   1   1   2   1   2   1   3   1   2   1   2   1   2   1   1   1   2   1   2   1   2   1   2   1   2   1   1   1   2   1   3   1   2   1   2   1   2   1   2   1   2   1   2   1   2   1   2   1   2   1   2   1   4   1   2   1   1   1   2   1   2   1   2   1   2   1   2   1   2
Cartesian
  7.0468700000000002  1.0053900000000000  9.8650300000000009
  9.3954599999999999  1.2214200000000000  9.7462999999999997
  1.9185500000000000  1.1633100000000001  9.8930399999999992
  4.6013099999999998  1.1305799999999999  9.9252800000000008
  8.2229500000000009  3.5388899999999999  9.8155999999999999
  0.6145310000000000  3.3260100000000001  9.6789600000000000
  3.1593599999999999  3.2741699999999998  9.7702600000000004
  5.7375400000000001  3.3348599999999999  9.7792600000000007
  9.5107700000000008  5.6283399999999997  9.8531300000000002
  1.9287200000000000  5.5668600000000001  9.7350399999999997
  4.4586600000000001  5.3826900000000002  9.8831500000000005
  6.9811800000000002  5.5455699999999997  9.9565000000000001
  0.4724450000000000  7.8245699999999996  9.7694399999999995
  3.2076300000000000  7.7214999999999998  9.8172400000000000
  5.5975099999999998  7.6964800000000002  9.9254499999999997
  8.0509000000000004  7.6556699999999998  9.9418799999999994
  5.6658499999999998  1.8419500000000000 11.9497999999999998
  8.2271999999999998  1.8888900000000000 11.9471000000000007
  0.6088320000000000  1.9129700000000001 11.9780999999999995
  3.1019600000000001  1.7775700000000001 11.9956999999999994
  6.8801300000000003  4.0992699999999997 11.9367999999999999
  9.5078200000000006  4.0988400000000000 11.9799000000000007
  1.8589100000000001  3.9565500000000000 11.8100000000000005
  4.2635500000000004  4.0235099999999999 12.0043000000000006
  8.3338699999999992  6.2255099999999999 12.0358000000000001
  0.7394710000000000  6.2014699999999996 11.7941000000000003
  3.1967699999999999  6.1779000000000002 11.9498999999999995
  5.6540499999999998  6.3052700000000002 11.9939999999999998
  9.5506700000000002  8.4014199999999999 11.9481999999999999
  1.8117200000000000  8.4278800000000000 11.8414000000000001
  4.3173500000000002  8.3975000000000009 11.9158000000000008
  6.8838600000000003  8.5018999999999991 12.0518999999999998
  5.7039600000000004  0.3659090000000000 14.0305999999999997
  8.2390600000000003  0.3659090000000000 14.0305999999999997
  0.6337739999999999  0.3659090000000000 14.0305999999999997
  3.1688700000000001  0.3659090000000000 14.0305999999999997
  6.9715100000000003  2.5613700000000001 14.0305999999999997
  9.5066000000000006  2.5613700000000001 14.0305999999999997
  1.9013199999999999  2.5613700000000001 14.0305999999999997
  4.4364200000000000  2.5613700000000001 14.0305999999999997
  8.2390600000000003  4.7568200000000003 14.0305999999999997
  0.6337739999999999  4.7568200000000003 14.0305999999999997
  3.1688700000000001  4.7568200000000003 14.0305999999999997
  5.7039600000000004  4.7568200000000003 14.0305999999999997
  9.5066000000000006  6.9522800000000000 14.0305999999999997
  1.9013199999999999  6.9522800000000000 14.0305999999999997
  4.4364200000000000  6.9522800000000000 14.0305999999999997
  6.9715100000000003  6.9522800000000000 14.0305999999999997
  6.9715100000000003  1.0977300000000001 16.1005000000000003
  9.5066000000000006  1.0977300000000001 16.1005000000000003
  1.9013199999999999  1.0977300000000001 16.1005000000000003
  4.4364200000000000  1.0977300000000001 16.1005000000000003
  8.2390600000000003  3.2931800000000000 16.1005000000000003
  0.6337739999999999  3.2931800000000000 16.1005000000000003
  3.1688700000000001  3.2931800000000000 16.1005000000000003
  5.7039600000000004  3.2931800000000000 16.1005000000000003
  9.5066000000000006  5.4886400000000002 16.1005000000000003
  1.9013199999999999  5.4886400000000002 16.1005000000000003
  4.4364200000000000  5.4886400000000002 16.1005000000000003
  6.9715100000000003  5.4886400000000002 16.1005000000000003
  0.6337739999999999  7.6840999999999999 16.1005000000000003
  3.1688700000000001  7.6840999999999999 16.1005000000000003
  5.7039600000000004  7.6840999999999999 16.1005000000000003
  8.2390600000000003  7.6840999999999999 16.1005000000000003
  5.6826800000000004  1.8361700000000001 18.2221000000000011
  8.2964599999999997  1.7249399999999999 18.2063999999999986
  0.6532350000000000  1.9179100000000000 18.2514000000000003
  3.1204499999999999  1.8367300000000000 18.1548000000000016
  6.9690099999999999  4.0323700000000002 18.2985000000000007
  9.4948599999999992  4.0340600000000002 18.0527000000000015
  1.8972800000000001  4.0719900000000004 18.1567000000000007
  4.4622599999999997  4.0808400000000002 18.1546999999999983
  8.2154399999999992  6.2042599999999997 18.2119999999999997
  0.6301390000000000  6.2415000000000003 18.0793999999999997
  3.1031599999999999  6.1392699999999998 18.0651000000000010
  5.6999399999999998  6.0927899999999999 18.2390000000000008
  9.4673200000000008  8.3750099999999996 18.1935000000000002
  1.8651300000000000  8.4817300000000007 18.1825000000000010
  4.4278100000000000  8.1998300000000004 18.1334000000000017
  6.7534700000000001  8.2534100000000006 18.1663999999999994
  5.6647699999999999  0.4150160000000000 20.1967999999999996
  8.1929099999999995  0.4446100000000000 20.3888999999999996
  0.5229100000000000  0.5441900000000000 20.2809999999999988
  3.1381800000000002  0.4643940000000000 20.1025999999999989
  7.1350600000000002  2.6447900000000000 20.3091000000000008
  9.6465200000000006  2.7011400000000001 20.2179000000000002
  2.0229800000000000  2.6941400000000000 20.1310000000000002
  4.6084100000000001  2.5984900000000000 20.2215999999999987
  8.2909699999999997  4.9022600000000001 20.0633000000000017
  0.6294880000000000  4.9302200000000003 20.1362999999999985
  3.1188699999999998  4.7785900000000003 20.2618000000000009
  5.6888100000000001  4.8232799999999996 20.3298999999999985
  9.4784100000000002  7.1197699999999999 20.3844999999999992
  1.9356300000000000  7.0348400000000000 20.1614000000000004
  4.3495299999999997  6.9223299999999997 20.2941000000000003
  6.9279900000000003  6.9612800000000004 20.3896000000000015
  9.1147399999999994  3.9929899999999998 26.5348000000000006
  8.6823700000000006  4.9013000000000000 26.4265000000000008
  9.9480599999999999  3.8904700000000001 25.9205000000000005
  3.8993500000000001  7.0787399999999998 26.8562000000000012
  3.1661299999999999  7.7224899999999996 26.6769999999999996
  4.4291900000000002  7.1087999999999996 25.9743999999999993
  4.5452000000000004  8.1614000000000004  6.5290900000000001
  3.8612700000000002  3.0449500000000000 23.4821999999999989
  4.9307400000000001  7.8496400000000000  7.3008300000000004
  5.7201500000000003  6.8427600000000002 24.8624000000000009
  5.7399399999999998  6.0093100000000002 24.4028999999999989
  5.7282500000000001  7.4630599999999996 24.1620999999999988
  5.9342400000000000  0.2162860000000000 23.4206000000000003
  6.8474199999999996  0.5931850000000000 23.5260999999999996
  5.9500700000000002 -0.1960780000000000 22.5362000000000009
  2.1549700000000001  2.6247600000000002  6.2739599999999998
  7.9606300000000001  0.0257187000000000  3.4344100000000002
  2.6559400000000002  2.8477999999999999  7.0772000000000004
  7.7905600000000002  3.0592999999999999 23.5287000000000006
  5.9586100000000002  2.3833700000000002  5.8781299999999996
  8.4851200000000002  3.7129099999999999 23.6033000000000008
  7.7187799999999998  0.9467390000000000  3.4942000000000002
  3.4466100000000002  5.9751200000000004  0.3189970000000000
  7.0633900000000001  1.0029600000000001  4.2093400000000001
  9.1877700000000004  5.6258400000000002 23.4289999999999985
  9.0614899999999992  6.6009399999999996 23.5896000000000008
  7.6655499999999996  7.1982600000000003  0.9929870000000000
  7.7309099999999997  8.0946300000000004  0.7435950000000000
  6.9811100000000001  8.2247699999999995  0.1194730000000000
  1.2876900000000000  6.0413399999999999  5.5010000000000003
  4.1341200000000002  6.4973900000000002  0.8541820000000000
  3.9707900000000000  6.3985099999999999  1.8312400000000000
  3.3961100000000002  0.2201540000000000  2.9863599999999999
  3.1254800000000000  8.0269399999999997 23.4903000000000013
  3.7712599999999998  8.0950699999999998 22.7652000000000001
  2.6639900000000001  7.2163199999999996 23.3914000000000009
  5.7100900000000001  1.6917700000000000  5.1990600000000002
  1.5227599999999999  3.3703599999999998  6.2828799999999996
  5.4394200000000001  0.8999950000000000  5.7359499999999999
  1.0304700000000000  3.5362600000000000 24.9279000000000011
  1.8701500000000000  3.7583899999999999 25.5285000000000011
  1.3286400000000000  4.0515699999999999 24.1832999999999991
  3.8052199999999998  2.1790799999999999 23.9404000000000003
  7.9148199999999997  2.7415900000000000 22.6573999999999991
  4.5076499999999999  1.6497900000000001 23.5338999999999992
  4.8872900000000001  3.5048699999999999  0.2782960000000000
  4.4200299999999997  3.0536400000000001 29.6555999999999997
  8.6907399999999999  8.6297400000000000 27.6927999999999983
  8.3698200000000007  7.8045000000000000 27.3472000000000008
  8.9872700000000005  8.4285599999999992 28.5855999999999995
  3.6117200000000000  3.7858499999999999  2.8609700000000000
  2.8535200000000001  3.4557500000000001  3.3290299999999999
  3.7711500000000000  4.6578700000000000  3.2488299999999999
  0.9977750000000000  1.0763799999999999 23.7206000000000010
  1.8504200000000000  0.7097900000000000 23.4310000000000009
  1.1618900000000001  1.8971300000000000 24.1711999999999989
  4.1277200000000001  3.6264200000000000  0.9163600000000000
  1.4030800000000001  6.8849900000000002  4.9756900000000002
  1.3550800000000001  7.6144299999999996  5.6786799999999999
  1.0542700000000000  5.5105100000000000  7.6256500000000003
  0.7097170000000000  5.1490700000000000  6.7655300000000000
  9.9707100000000004  5.5878500000000004  6.6950399999999997
  8.8831600000000002  5.4649900000000002 22.4481999999999999
  3.7305999999999999  1.5988400000000000 28.5295999999999985
  4.0944500000000001  1.9866900000000001 27.7741000000000007
  4.4068399999999999  1.0303800000000001 28.9035000000000011
  4.0657300000000003  0.1983970000000000  3.7130399999999999
  4.2426100000000000  1.0943000000000001  4.0257300000000003
  1.0201899999999999  6.3415600000000003  2.4192700000000000
  1.1215599999999999  6.5324200000000001  3.3718400000000002
  1.5109500000000000  0.2545480000000000 25.4310000000000009
  1.6080700000000001  8.7731499999999993 26.3933000000000000
  7.9226000000000001  3.4311900000000000  6.7460300000000002
  1.4936100000000001  0.7918220000000000 26.9180999999999990
  6.9831000000000003  3.6233700000000000  6.6365499999999997
  0.2143960000000000  6.7747500000000000  2.0410200000000001
  6.8129000000000000  3.7113999999999998  7.5811599999999997
  0.6895890000000000  0.3925790000000000  6.6045299999999996
  0.5992570000000000  0.3385370000000000  7.5974700000000004
  1.3114300000000001  1.1837700000000000  6.5019400000000003
  9.3620400000000004  1.2285100000000000  0.4052410000000000
  8.9921000000000006  0.3904030000000000  0.7434500000000001
  5.2364199999999999  4.4966900000000001 22.5397999999999996
  5.3889600000000000  4.4606800000000000 23.4984000000000002
  7.8313600000000001  5.0966100000000001 29.3692999999999991
  7.1386500000000002  5.7009200000000000 29.2580999999999989
  8.6008800000000001  1.7849400000000000  0.6783050000000000
  6.4131799999999997  5.2278599999999997 29.7083000000000013
  7.1585000000000001  2.7682000000000002  1.6338200000000001
  7.1982999999999997  1.9962599999999999  2.2275000000000000
  6.2150800000000004  2.8628900000000002  1.1853000000000000
  4.3281000000000001  2.2341099999999998 25.3738999999999990
  4.6320399999999999  2.5517599999999998 26.2415999999999983
  1.9401500000000000  8.0255500000000008  1.5444400000000000
  5.5744999999999996  2.3835199999999999 26.5105000000000004
  2.2681800000000001  0.1556700000000000  1.4134500000000001
  2.6877900000000001 -0.0530679000000000  0.5360560000000000
  8.5386000000000006  8.8245400000000007 22.5773000000000010
  1.0496099999999999  2.1694900000000001  3.0244700000000000
  0.8404090000000000  1.2472099999999999  2.6807500000000002
  0.4450370000000000  2.2632099999999999  3.7693599999999998
  1.9659599999999999  5.4038599999999999 23.1558999999999990
  1.0105700000000000  5.6023199999999997 23.1665999999999990
  7.8670700000000000  2.6453700000000002 26.7139999999999986
  7.2200899999999999  1.8748600000000000 26.8865000000000016
  3.4911099999999999  6.5965299999999996  4.6240899999999998
  7.6371000000000002  0.9993930000000000 27.0538999999999987
  4.2233999999999998  6.4038399999999998  4.0670799999999998
  2.1715599999999999  5.1420700000000004 22.2436000000000007
  4.5700599999999998  7.3302699999999996  4.0371100000000002
  8.5142199999999999  7.1396499999999996  3.5758299999999998
  7.9657200000000001  6.4558499999999999  3.1734300000000002
  8.7080900000000003  6.9473799999999999  4.5136599999999998
  1.1500200000000000  1.9487500000000000 28.3331000000000017
  6.1910900000000000  3.8694600000000001 23.6777000000000015
  9.8059200000000004  1.7050900000000000  5.7559899999999997
  9.4406300000000005  2.1940000000000000  5.0005100000000002
  6.0838700000000001  5.5891700000000002  2.1005400000000001
  8.7327499999999993  1.6338999999999999  4.5747400000000003
  6.9793399999999997  5.3380299999999998  2.3721500000000000
  1.9316000000000000  1.6077800000000000 28.8318000000000012
  7.0733499999999996  4.3603399999999999  2.3047700000000000
  2.7179899999999999  4.5873999999999997 27.0357999999999983
  3.1192500000000001  5.4667599999999998 26.9482999999999997
  3.4128900000000000  3.9240499999999998 26.8401999999999994
  3.9135000000000000  8.8248599999999993  6.8966099999999999
  8.2675999999999998  6.7881299999999998  7.6047399999999996
  8.3383000000000003  6.3058600000000000  6.7592100000000004
  6.9682199999999996  6.5030500000000000 25.9746999999999986
  7.6486799999999997  5.6078599999999996  6.8309300000000004
  7.5326199999999996  6.1800699999999997 26.7013999999999996
  7.0442200000000001  5.9003899999999998 27.5292999999999992
  8.7321799999999996  8.4962400000000002 23.5097999999999985
  9.5779599999999991  0.1456010000000000 23.6561999999999983
  0.4022630000000000  1.5435300000000001 28.7938000000000009
 -0.0123016000000000  6.8731200000000001 29.6291000000000011
  9.7406400000000009  6.0634499999999996 29.2329000000000008
  0.9404620000000000  6.7434099999999999 29.5445999999999991
  9.4466599999999996  4.3270200000000001 29.0269000000000013
  9.3210999999999995  4.0850799999999996 28.0764999999999993
 10.1036000000000001  3.6612300000000002 29.2367999999999988
  5.4514399999999998  8.2138500000000008 29.1921999999999997
  5.1939200000000003  7.7477400000000003 29.9776999999999987
  4.8993399999999996  7.8923399999999999 28.4521000000000015
  2.3419200000000000  5.3103300000000004 29.5784999999999982
  2.5133200000000002  4.8300000000000001 28.7342000000000013
  1.8025199999999999  4.6795000000000000 -0.0319706000000000
  0.9218670000000000  4.0187200000000001  1.0449100000000000
  0.8116719999999999  4.8310000000000004  1.5865300000000000
  0.8088800000000000  3.2560099999999998  1.7242800000000000
