Cu O  H  O  H  O  H  O  H  O  H  O  H  O  H  O  H  O  H  O  H  O  H  O  H  O  H  O  H  O  H  O  H  O  H  O  H  O  H  O  H  O  H  O  H  O  H  O  H  O  H  O  H  O  H  O  H  O  H  O  H  O  H  O  H  O  H  O  H  O  H  O  H  O  H  O  H  O  H  O  H  O  H  O  H  O  H  O  H  O  H  O  H  O  H  O  H  O  H  O  H 
 1.0000000000000000
    10.1403771778044529    0.0000000000000000    0.0000000000000000
     0.0000000000000000    8.7818242399346058    0.0000000000000000
     0.0000000000000000    0.0000000000000000   30.1311271579000000
 Cu  O   H   O   H   O   H   O   H   O   H   O   H   O   H   O   H   O   H   O   H   O   H   O   H   O   H   O   H   O   H   O   H   O   H   O   H   O   H   O   H   O   H   O   H   O   H   O   H   O   H   O   H   O   H   O   H   O   H   O   H   O   H   O   H   O   H   O   H   O   H   O   H   O   H   O   H   O   H   O   H   O   H   O   H   O   H   O   H   O   H   O   H   O   H   O   H   O   H   O   H  
  96   1   2   1   2   1   2   1   2   1   2   1   2   1   2   1   2   1   2   1   2   1   2   1   2   1   2   1   2   1   2   1   1   1   2   1   2   1   3   1   2   1   2   1   2   1   1   1   2   1   2   1   2   1   2   1   2   1   1   1   2   1   3   1   2   1   2   1   2   1   2   1   2   1   2   1   2   1   2   1   2   1   2   1   4   1   2   1   1   1   2   1   2   1   2   1   2   1   2   1   2
Cartesian
  7.0294800000000004  1.2830600000000001  9.7408300000000008
  9.5077900000000000  1.0761000000000001  9.8803400000000003
  1.9525600000000001  1.1098200000000000  9.7308400000000006
  4.6374300000000002  1.0584700000000000  9.9346399999999999
  8.2283200000000001  3.3757600000000001  9.8864500000000000
  0.6457270000000001  3.2249300000000001  9.8206699999999998
  3.0707399999999998  3.1351399999999998  9.9479600000000001
  5.7236399999999996  3.2445599999999999  9.9181299999999997
  9.6533700000000007  5.5250599999999999  9.6748600000000007
  1.9703500000000000  5.4184999999999999  9.8404799999999994
  4.4459900000000001  5.4521100000000002  9.8462300000000003
  7.0041300000000000  5.4685800000000002  9.8168900000000008
  0.7992270000000000  7.6946300000000001  9.8183699999999998
  3.2149500000000000  7.6533899999999999  9.8490000000000002
  6.0182399999999996  7.5805800000000003 10.0510999999999999
  8.4065200000000004  7.6049899999999999  9.8312500000000007
  5.7525700000000004  1.7609100000000000 11.8783999999999992
  8.1921599999999994  1.8305499999999999 11.9542000000000002
  0.7016790000000001  1.7626500000000001 11.8803999999999998
  3.1688000000000001  1.7162800000000000 11.8248999999999995
  7.0317200000000000  4.0535399999999999 11.9832999999999998
  9.6444799999999997  4.0387399999999998 11.8585999999999991
  1.8391200000000001  4.0597000000000003 11.9175000000000004
  4.4622299999999999  4.0004700000000000 12.0204000000000004
  8.2356200000000008  6.2171900000000004 11.8092000000000006
  0.5946010000000000  6.2819700000000003 11.9397000000000002
  3.1311499999999999  6.2294000000000000 12.0084000000000000
  5.6756200000000003  6.1905700000000001 11.9229000000000003
  9.5746800000000007  8.4677000000000007 11.7905999999999995
  1.9884400000000000  8.3841999999999999 11.9425000000000008
  4.5106900000000003  8.2444100000000002 11.7856000000000005
  7.1581500000000000  8.4339800000000000 11.9700000000000006
  5.7039600000000004  0.3659090000000000 14.0305999999999997
  8.2390600000000003  0.3659090000000000 14.0305999999999997
  0.6337739999999999  0.3659090000000000 14.0305999999999997
  3.1688700000000001  0.3659090000000000 14.0305999999999997
  6.9715100000000003  2.5613700000000001 14.0305999999999997
  9.5066000000000006  2.5613700000000001 14.0305999999999997
  1.9013199999999999  2.5613700000000001 14.0305999999999997
  4.4364200000000000  2.5613700000000001 14.0305999999999997
  8.2390600000000003  4.7568200000000003 14.0305999999999997
  0.6337739999999999  4.7568200000000003 14.0305999999999997
  3.1688700000000001  4.7568200000000003 14.0305999999999997
  5.7039600000000004  4.7568200000000003 14.0305999999999997
  9.5066000000000006  6.9522800000000000 14.0305999999999997
  1.9013199999999999  6.9522800000000000 14.0305999999999997
  4.4364200000000000  6.9522800000000000 14.0305999999999997
  6.9715100000000003  6.9522800000000000 14.0305999999999997
  6.9715100000000003  1.0977300000000001 16.1005000000000003
  9.5066000000000006  1.0977300000000001 16.1005000000000003
  1.9013199999999999  1.0977300000000001 16.1005000000000003
  4.4364200000000000  1.0977300000000001 16.1005000000000003
  8.2390600000000003  3.2931800000000000 16.1005000000000003
  0.6337739999999999  3.2931800000000000 16.1005000000000003
  3.1688700000000001  3.2931800000000000 16.1005000000000003
  5.7039600000000004  3.2931800000000000 16.1005000000000003
  9.5066000000000006  5.4886400000000002 16.1005000000000003
  1.9013199999999999  5.4886400000000002 16.1005000000000003
  4.4364200000000000  5.4886400000000002 16.1005000000000003
  6.9715100000000003  5.4886400000000002 16.1005000000000003
  0.6337739999999999  7.6840999999999999 16.1005000000000003
  3.1688700000000001  7.6840999999999999 16.1005000000000003
  5.7039600000000004  7.6840999999999999 16.1005000000000003
  8.2390600000000003  7.6840999999999999 16.1005000000000003
  5.7179399999999996  1.8688400000000001 18.1380000000000017
  8.2974099999999993  1.8570700000000000 18.1854000000000013
  0.5088570000000000  1.7791999999999999 18.2073000000000000
  3.1891400000000001  1.9505800000000000 18.1183000000000014
  7.0847300000000004  4.0447699999999998 18.2510000000000012
  9.5051400000000008  4.0977499999999996 18.1302999999999983
  1.9562600000000001  3.9781700000000000 18.1628000000000007
  4.4666899999999998  4.0058800000000003 18.0795999999999992
  8.1681299999999997  6.3422299999999998 18.2311000000000014
  0.6338560000000000  6.1786500000000002 18.1409999999999982
  3.1874699999999998  6.1922800000000002 18.1830999999999996
  5.6849299999999996  6.2330399999999999 18.1375999999999991
  9.3945600000000002  8.3698800000000002 18.1951999999999998
  1.8443400000000001  8.5390300000000003 18.1186000000000007
  4.4898699999999998  8.4211100000000005 18.0960000000000001
  6.9229799999999999  8.4416399999999996 18.2165999999999997
  5.6247699999999998  0.4833910000000000 20.2327000000000012
  8.1385900000000007  0.3700550000000000 20.1360999999999990
  0.6514840000000000  0.4493960000000000 20.2584000000000017
  3.0878199999999998  0.4577870000000000 20.2104999999999997
  7.0900400000000001  2.5678200000000002 20.0852000000000004
  9.4410399999999992  2.5969899999999999 20.4954000000000001
  1.8260000000000001  2.6863199999999998 20.1664999999999992
  4.3692299999999999  2.7137600000000002 20.2449000000000012
  8.2188700000000008  4.6898900000000001 20.3043000000000013
  0.6660590000000000  4.7902800000000001 20.1635999999999989
  3.2528199999999998  4.6923899999999996 20.3090000000000011
  5.6230799999999999  4.7068700000000003 20.1082000000000001
  9.5175300000000007  6.9921199999999999 20.2055000000000007
  1.8243199999999999  7.1803999999999997 20.2469999999999999
  4.3571799999999996  6.9930500000000002 20.1018000000000008
  6.8530199999999999  6.9657700000000000 20.2401000000000018
  7.9921400000000000  3.5785800000000001  2.9130300000000000
  8.4473099999999999  4.2705799999999998  3.3924699999999999
  7.0761599999999998  3.6450700000000000  3.1081099999999999
  6.2012099999999997  0.8828830000000000 24.4451000000000001
  5.3605099999999997  0.6266590000000000 24.9209999999999994
  5.9443400000000004  1.7440400000000000 24.0542000000000016
  8.7224599999999999  5.1077800000000000 26.2602000000000011
  3.5434100000000002  8.2834199999999996 25.1331999999999987
  8.1888100000000001  4.3716600000000003 25.9955999999999996
  5.8251900000000001  7.2093100000000003  1.5243800000000001
  6.7185400000000000  7.3270299999999997  1.2719499999999999
  5.7383800000000003  6.5593500000000002  0.8137860000000000
  3.5254799999999999  3.6633900000000001 29.1788999999999987
  3.6812900000000002  2.6899899999999999 29.1048000000000009
  3.2378000000000000  3.8125800000000001 28.2829000000000015
  7.5980999999999996  7.8567099999999996 23.2820999999999998
  2.1060300000000001  7.6445299999999996  0.4334510000000000
  7.0112500000000004  8.5903500000000008 23.4548999999999985
  0.4547230000000000  7.5835200000000000  3.5734200000000000
  4.6550000000000002  3.1303200000000002  2.4010199999999999
 10.0807000000000002  6.8704200000000002  3.9925600000000001
  2.1940800000000000  8.3399599999999996 29.8919999999999995
  5.3625400000000001  3.4094199999999999 22.0803000000000011
  3.0479500000000002  8.8155300000000008 29.8314999999999984
  3.3418800000000002  2.6293600000000001 24.2454999999999998
  2.7874300000000001  3.3181300000000000 23.7962999999999987
  5.7573299999999996  6.6539700000000002 23.3273000000000010
  4.8708299999999998  6.9192600000000004 23.5514000000000010
  4.4275200000000003  7.0568200000000001 22.6518000000000015
  2.3510000000000000  6.1912599999999998 27.1101999999999990
  5.8938499999999996  3.2752800000000000 22.9406999999999996
  5.5778400000000001  3.8609800000000001 23.6674000000000007
  5.1764799999999997  6.5134100000000004 27.6232000000000006
  5.6838199999999999  3.9070299999999998 25.6437999999999988
  5.6364799999999997  4.8061400000000001 26.0804000000000009
  4.7306200000000000  3.7246400000000000 25.5579999999999998
  4.2239000000000004  2.5842100000000001  1.7345299999999999
  7.4946299999999999  7.6288400000000003 22.3404999999999987
  4.0503799999999996  1.7061299999999999  2.1880899999999999
  9.7643500000000003  1.6258800000000000  3.4380600000000001
  8.9269200000000009  2.1149700000000000  3.3098700000000001
  0.2825680000000000  2.3700999999999999  3.4093800000000001
  4.0589800000000000  8.6817399999999996 25.8462999999999994
 -0.1276260000000000  8.3207799999999992  3.3623300000000000
  3.4676600000000000  0.4034570000000000 26.4011999999999993
  8.3975100000000005  0.0982296000000000  6.7218299999999997
  8.7012000000000000  8.4841599999999993  7.5738700000000003
  9.7474399999999992  6.7366400000000004 24.2244999999999990
  0.2881880000000000  7.1157899999999996 23.6631999999999998
  8.9926100000000009  7.3455800000000000 24.0485000000000007
  0.9972440000000000  1.5241199999999999  6.8128200000000003
  1.1725000000000001  1.3304000000000000  7.7876099999999999
 10.4202999999999992  0.8970140000000000  6.7122000000000002
  9.3984600000000000  5.5423400000000003  4.7358700000000002
  8.5859900000000007  5.6282100000000002  5.2627199999999998
 10.0120000000000005  4.8852900000000004  5.1820700000000004
  8.1105400000000003  0.9899770000000000  7.0477600000000002
  2.6456599999999999  6.2513699999999996 28.0346000000000011
  2.3544900000000002  7.1493799999999998 28.3141999999999996
  1.0590100000000000  0.8878330000000000  0.0640507000000000
  0.3487150000000000  1.5786300000000000  0.2118600000000000
  0.7246420000000000  2.2604199999999999  0.8626500000000000
  3.6587600000000000  2.0413500000000000 23.5302000000000007
  7.0391199999999996  8.8064999999999998 28.7840999999999987
  7.3586299999999998  0.8388270000000000 28.2918999999999983
  7.3038100000000004  8.8337699999999995 29.7423999999999999
  5.4528499999999998  6.6865199999999998 26.6972999999999985
  4.8686299999999996  7.3968499999999997 26.4197999999999986
  0.9685990000000000  4.1582200000000000  6.4093400000000003
  0.7802640000000000  3.1984499999999998  6.5513000000000003
  2.6012400000000002  8.1716800000000003 22.5883000000000003
  2.3999400000000000  8.4344300000000008 23.4706000000000010
  5.2826100000000000  0.1057420000000000  7.4774599999999998
  1.5415800000000000  0.0517730000000000 23.4622999999999990
  5.4228600000000000  0.4471590000000000  6.5707000000000004
  1.0691100000000000  4.5583999999999998  7.2823900000000004
  6.2841100000000001  0.0567633000000000  6.3719099999999997
  0.2963320000000000  3.1889200000000000 27.8638000000000012
  0.4090570000000000  2.6703800000000002 28.7198999999999991
  9.5792300000000008  2.8733000000000000 27.6084999999999994
  2.4859599999999999  1.9964700000000000 26.8005999999999993
  1.7117599999999999  2.5418599999999998 26.9880999999999993
  7.7761399999999998  3.7875600000000000  1.0412500000000000
  7.6772499999999999  4.1440700000000001  0.1596470000000000
  6.4091300000000002  7.7612500000000004  3.5660900000000000
  7.2929599999999999  8.1057199999999998  3.6394600000000001
  2.6600100000000002  2.2170500000000000 25.8162999999999982
  7.5878600000000000  8.1707900000000002  4.5728799999999996
  4.4796300000000002  1.0490800000000000 29.5863000000000014
  4.6454100000000000  1.6696400000000000  0.1513240000000000
  5.2745699999999998  0.5343530000000000 29.3797999999999995
  0.9482070000000000  3.8137699999999999 22.3455000000000013
  1.0400700000000001  3.8765200000000002 23.3123000000000005
  6.1464600000000003  2.5009800000000002  7.2069000000000001
  0.7426280000000000  2.9718700000000000 23.6569000000000003
  6.2945099999999998  3.4302299999999999  6.9798999999999998
  5.9090400000000001  4.0537099999999997  7.6283799999999999
  2.1448000000000000  0.2717570000000000  5.9372299999999996
  3.8094299999999999  0.0332140000000000  2.6784400000000002
  3.5441600000000002  8.8511600000000001  3.6038700000000001
  4.6365200000000000  8.2611100000000004  2.6712699999999998
 10.2457999999999991  1.2341599999999999 23.5939000000000014
  9.8629400000000000  0.9006630000000000 22.7728999999999999
  3.9988600000000001  7.4233200000000004  4.5234300000000003
  4.8246700000000002  7.0750299999999999  4.1938399999999998
  5.9548899999999998  4.8436199999999996 29.6006000000000000
  5.1266100000000003  6.6681699999999999  5.0004600000000003
  5.2896900000000002  5.5254700000000003 29.5311999999999983
  9.6177299999999999  1.0560099999999999 24.2983000000000011
  4.3849600000000004  5.1443599999999998 29.5574000000000012
  8.1358099999999993 -0.0666740000000000  1.2648500000000000
  7.7887100000000000 -0.0075208200000000  2.2151900000000002
  8.8778799999999993  0.5312590000000000  1.1609200000000000
  1.5604400000000000  6.1325399999999997  1.4500999999999999
  8.4487000000000005  4.6815300000000004 30.1027999999999984
  2.9236700000000000  6.6841600000000003  6.4051999999999998
  3.3788100000000001  5.8479200000000002  6.5139800000000001
  3.1458699999999999  6.0160299999999998 24.3496999999999986
  3.6514400000000000  5.8809500000000003  7.4134799999999998
  2.5243899999999999  5.5556500000000000 24.9486999999999988
  0.9079010000000000  5.9962799999999996  0.7575750000000000
  1.8203000000000000  5.1685200000000000 24.4451000000000001
  8.6724499999999995  1.0215300000000000 26.1255999999999986
  7.7516200000000000  0.9825190000000000 25.7478000000000016
  9.0321599999999993  0.1523300000000000 26.2388000000000012
  9.1072199999999999  5.4910800000000002 25.4573999999999998
  7.4393599999999998  3.1660800000000000 28.9136999999999986
  7.3811600000000004  2.8008899999999999 27.9721000000000011
  8.1747300000000003  7.7379199999999999 28.2597999999999985
  6.7130700000000001  3.2972600000000001 27.5117000000000012
  8.9180100000000007  7.2973400000000002 27.8552000000000000
  8.4226100000000006  6.7285000000000004 27.2182999999999993
  2.4411900000000002  8.3031799999999993  5.3896800000000002
  1.6603300000000001  8.0664300000000004  4.8690100000000003
  1.1087400000000001  6.6733000000000002  2.0829599999999999
  5.5386699999999998  4.2990399999999998  3.5786799999999999
  5.0125799999999998  4.0567200000000003  4.4214200000000003
  5.4383200000000000  5.2398100000000003  3.4413600000000000
  7.0625099999999996  6.2103799999999998  5.9405099999999997
  7.2418899999999997  6.8174500000000000  6.6884899999999998
  6.9034100000000000  5.3638100000000000  6.3488400000000000
  3.7996699999999999  3.2309999999999999  5.2936899999999998
  3.2765200000000001  3.9240200000000001  5.6600799999999998
  3.9431699999999998  2.5076900000000002  5.9333499999999999
  1.6128499999999999  3.4031699999999998  2.0267800000000000
  2.5460099999999999  3.2084000000000001  1.9065000000000001
  1.5118600000000000  4.3905000000000003  1.8288100000000000
  9.8145299999999995  5.5148400000000004 29.5695000000000014
  9.5098199999999995  6.2697099999999999 29.0125999999999991
  0.1171040000000000  4.8870800000000001 28.9817999999999998
