Cu O  H  O  H  O  H  O  H  O  H  O  H  O  H  O  H  O  H  O  H  O  H  O  H  O  H  O  H  O  H  O  H  O  H  O  H  O  H  O  H  O  H  O  H  O  H  O  H  O  H  O  H  O  H  O  H  O  H  O  H  O  H  O  H  O  H  O  H  O  H  O  H  O  H  O  H  O  H  O  H  O  H  O  H  O  H  O  H  O  H  O  H  O  H  O  H  O  H  O  H 
 1.0000000000000000
    10.1403771778044529    0.0000000000000000    0.0000000000000000
     0.0000000000000000    8.7818242399346058    0.0000000000000000
     0.0000000000000000    0.0000000000000000   30.1311271579000000
 Cu  O   H   O   H   O   H   O   H   O   H   O   H   O   H   O   H   O   H   O   H   O   H   O   H   O   H   O   H   O   H   O   H   O   H   O   H   O   H   O   H   O   H   O   H   O   H   O   H   O   H   O   H   O   H   O   H   O   H   O   H   O   H   O   H   O   H   O   H   O   H   O   H   O   H   O   H   O   H   O   H   O   H   O   H   O   H   O   H   O   H   O   H   O   H   O   H   O   H   O   H  
  96   1   2   1   2   1   2   1   2   1   2   1   2   1   2   1   2   1   2   1   2   1   2   1   2   1   2   1   2   1   2   1   1   1   2   1   2   1   3   1   2   1   2   1   2   1   1   1   2   1   2   1   2   1   2   1   2   1   1   1   2   1   3   1   2   1   2   1   2   1   2   1   2   1   2   1   2   1   2   1   2   1   2   1   4   1   2   1   1   1   2   1   2   1   2   1   2   1   2   1   2
Cartesian
  6.7483500000000003  1.0020300000000000  9.8234899999999996
  9.3378999999999994  1.1276999999999999  9.9905500000000007
  1.7436600000000000  1.1246900000000000  9.8355100000000011
  4.1553199999999997  1.1250599999999999 10.0051000000000023
  8.0439000000000007  3.2988100000000000  9.7385400000000022
  0.6009010000000000  3.3374100000000002 10.0738000000000003
  3.0706600000000002  3.2643499999999999  9.9751900000000013
  5.5265800000000000  3.0835400000000002  9.8682700000000008
  9.4283099999999997  5.4508499999999991  9.9156100000000009
  1.7736499999999999  5.4802000000000000  9.9782300000000017
  4.3271499999999996  5.3747100000000003  9.6938899999999997
  6.9331199999999997  5.4962600000000004  9.8452400000000022
  0.5095050000000000  7.7554400000000001 10.0861999999999998
  3.0726100000000001  7.5287100000000002  9.7454400000000003
  5.5457299999999998  7.5842599999999996 10.0561000000000007
  8.2663499999999992  7.6004800000000001  9.7156400000000023
  5.5791000000000004  1.8265800000000001 12.0405999999999995
  8.0292200000000005  1.8906900000000000 11.8877000000000006
  0.4137930000000000  1.7695799999999997 11.9171000000000014
  3.1021600000000000  1.7121599999999999 12.0894999999999992
  6.9136400000000000  4.0571999999999999 11.8552999999999997
  9.3793000000000006  4.1117900000000001 11.9200999999999997
  1.8228200000000001  4.0718899999999998 12.0818000000000012
  4.4138700000000002  3.9896099999999999 11.9363000000000010
  8.1795600000000004  6.2916499999999997 11.8861000000000026
  0.4754189999999999  6.1684299999999999 12.0504999999999995
  3.0527700000000002  6.3381800000000004 11.8831000000000024
  5.7452799999999993  6.1683500000000002 11.9634000000000000
  9.4343100000000000  8.3473400000000009 12.0587000000000000
  1.8298599999999998  8.4051600000000004 11.9350000000000023
  4.4032799999999996  8.3568400000000000 11.9846000000000021
  6.8231299999999999  8.3948999999999998 11.9306000000000019
  5.7039600000000004  0.3659089999999999 14.0306000000000015
  8.2390600000000003  0.3659089999999999 14.0306000000000015
  0.6337739999999999  0.3659089999999999 14.0306000000000015
  3.1688699999999996  0.3659089999999999 14.0306000000000015
  6.9715100000000003  2.5613700000000001 14.0306000000000015
  9.5066000000000006  2.5613700000000001 14.0306000000000015
  1.9013199999999999  2.5613700000000001 14.0306000000000015
  4.4364200000000000  2.5613700000000001 14.0306000000000015
  8.2390600000000003  4.7568199999999994 14.0306000000000015
  0.6337739999999999  4.7568199999999994 14.0306000000000015
  3.1688699999999996  4.7568199999999994 14.0306000000000015
  5.7039600000000004  4.7568199999999994 14.0306000000000015
  9.5066000000000006  6.9522799999999991 14.0306000000000015
  1.9013199999999999  6.9522799999999991 14.0306000000000015
  4.4364200000000000  6.9522799999999991 14.0306000000000015
  6.9715100000000003  6.9522799999999991 14.0306000000000015
  6.9715100000000003  1.0977300000000001 16.1005000000000003
  9.5066000000000006  1.0977300000000001 16.1005000000000003
  1.9013199999999999  1.0977300000000001 16.1005000000000003
  4.4364200000000000  1.0977300000000001 16.1005000000000003
  8.2390600000000003  3.2931800000000000 16.1005000000000003
  0.6337739999999999  3.2931800000000000 16.1005000000000003
  3.1688699999999996  3.2931800000000000 16.1005000000000003
  5.7039600000000004  3.2931800000000000 16.1005000000000003
  9.5066000000000006  5.4886400000000002 16.1005000000000003
  1.9013199999999999  5.4886400000000002 16.1005000000000003
  4.4364200000000000  5.4886400000000002 16.1005000000000003
  6.9715100000000003  5.4886400000000002 16.1005000000000003
  0.6337739999999999  7.6840999999999999 16.1005000000000003
  3.1688699999999996  7.6840999999999999 16.1005000000000003
  5.7039600000000004  7.6840999999999999 16.1005000000000003
  8.2390600000000003  7.6840999999999999 16.1005000000000003
  5.7470299999999996  1.7645800000000000 18.1883000000000017
  8.2545099999999998  1.9073400000000000 18.2512000000000043
  0.7770580000000000  1.8455800000000000 18.2146000000000008
  3.1859999999999999  1.8946200000000000 18.1713999999999984
  7.0465000000000000  3.9759699999999998 18.2011000000000003
  9.5082599999999999  3.9291100000000001 18.1678000000000033
  1.8546700000000000  4.1107300000000002 18.1078000000000010
  4.4836400000000003  4.0036699999999996 18.2452000000000005
  8.2734600000000000  6.1845699999999990 18.1563000000000017
  0.6122510000000000  6.1943099999999998 18.0965000000000025
  3.1358400000000000  6.3060900000000002 18.2377000000000038
  5.7882800000000003  6.1596799999999989 18.1111000000000004
  9.4505700000000008  8.5166000000000004 18.2108999999999988
  1.8541999999999998  8.4595199999999995 18.1335000000000015
  4.4221399999999997  8.2880000000000003 18.2241000000000000
  6.9529100000000001  8.4707399999999993 18.1420000000000030
  5.7610799999999998  0.3657870000000000 20.2204000000000050
  8.3365399999999994  0.4470100000000000 20.3084000000000024
  0.6012720000000000  0.3978950000000000 20.1623000000000019
  3.2321200000000001  0.3278990000000000 20.2090999999999994
  7.0156200000000002  2.5882800000000001 20.2183999999999990
  9.5148200000000003  2.6256499999999998 20.2777000000000029
  2.0164100000000000  2.5469200000000001 20.1973999999999982
  4.5788900000000003  2.4918100000000001 20.2183999999999990
  8.2866700000000009  4.7173699999999998 20.1586999999999996
  0.6958650000000000  4.8222500000000004 20.1205999999999996
  3.2499400000000001  4.7771999999999997 20.2689999999999984
  5.9296799999999994  4.7874199999999991 20.1388999999999996
  9.5573099999999993  6.9467999999999996 20.1632000000000033
  1.8320799999999997  6.9248399999999997 20.2219000000000015
  4.5560299999999998  6.9493400000000003 20.2403000000000048
  7.1823600000000001  6.9401700000000002 20.2006000000000050
  9.0559200000000004  0.3932410000000000 25.4995000000000012
  8.6770800000000001  0.2639857600653931 24.6107000000000014
  9.1488499999999995  8.3104499999999994 25.7984000000000009
  1.9147099999999997  2.2839399999999999  3.6186900000000004
  2.2791299999999999  1.9811399999999997  4.4399199999999999
  2.0078700000000000  3.2654100000000001  3.6410500000000003
  8.0991800000000005  8.0051400000000008  3.0086100000000005
  0.2607228221955473  1.1535200000000001 24.8571999999999989
  7.3940099999999997  8.1594800000000003  3.6300100000000000
  4.6616499999999998  3.1394600000000001  0.7269730000000000
  3.9627300000000001  3.6062399999999997  0.3298060000000000
  4.3479200000000002  2.7427999999999999  1.5536400000000001
  8.2065699999999993  5.5467500000000003 23.4457000000000022
  8.2138299999999997  5.6516099999999998 22.4781000000000013
  8.8141499999999997  6.2153299999999998 23.8667000000000016
  0.4170920000000000  0.0129957600653946  3.8247499999999999
  0.0966568000000000  1.5117799999999999  6.0727900000000004
  0.4997190000000000  0.9807879999999999  4.0505899999999997
  7.7116899999999999  0.8164569999999999  0.6478970000000001
  0.4577480000000000  7.6145699999999987  5.4749900000000000
  8.3899399999999993  1.4152199999999999  0.2789750000000000
  9.3250700000000002  1.8182900000000000  5.8615300000000010
  4.2103500000000000  0.3194730000000000  2.1010300000000002
  9.4069099999999999  2.6857799999999998  6.3234300000000001
  2.1321599999999998  0.9909349999999999 28.8558000000000021
  1.9881100000000000  0.2233890000000000 28.3039999999999985
  2.9714800000000001  8.2614500000000000 26.1265999999999998
  2.2006500000000000  8.1745199999999993 26.6978000000000044
  1.4478099999999998  8.0857600000000005 26.0721000000000025
  2.2858100000000001  7.5248499999999998  7.2859299999999996
  4.2817699999999999  1.0043200000000001  2.8153000000000001
  3.3739100000000000  1.3420500000000000  2.7036900000000004
  5.1913299999999998  8.5670500000000001  3.8573000000000000
  0.4470450000000000  4.1319699999999999 25.7009000000000007
  9.7353400000000008  3.9951599999999998 26.0868000000000038
  1.0237200000000000  4.5978499999999993 26.3227000000000046
  0.5321000000000000  7.1960099999999994  6.3505300000000000
  9.5700900000000004  8.5912299999999995  3.8280800000000004
  0.3285390000000000  6.2938799999999997  6.2619100000000003
  3.7817400000000001  2.8079499999999999 27.7642999999999986
  3.0769000000000002  2.1999899999999997 28.1932000000000045
  3.7389399999999999  2.7035199999999997 26.7910000000000004
  0.9113900000000000  1.7800199999999997 24.5361000000000047
  6.9661999999999997  0.9510630000000000  0.0237728421000024
  0.7848939999999999  2.6236000000000002 25.1499999999999986
  8.2430800000000009  0.0263557600653939  7.7219800000000003
  8.7549200000000003  8.0517299999999992  7.4916099999999997
  4.7824099999999996  3.2632399999999997  6.5562199999999997
  4.4896200000000004  3.1894900000000002  7.4715000000000007
  5.5993999999999993  3.8396400000000002  6.7266199999999996
  4.8210600000000001  7.2929700000000004  1.2690900000000003
  4.0379100000000001  6.8537999999999997  0.9276170000000001
  5.5068799999999998  6.8397600000000001  0.7091720000000001
  6.1798400000000004  6.1767999999999992 25.0400000000000027
  6.1338199999999992  5.5405199999999990 25.7577000000000034
  6.8808199999999999  5.8516000000000004 24.4364999999999988
  8.4956999999999994  0.7330320000000000  7.0227000000000013
  3.1866099999999999  7.7118199999999995  7.5639399999999997
  3.3852600000000002  8.6327700000000007  7.3464099999999997
  5.5454800000000004  6.5406000000000004  4.1615000000000002
  5.4467699999999999  5.5273199999999996  4.0662399999999996
  6.0126600000000003  5.2350399999999997  3.3577400000000006
  2.4634800000000001  0.6285449999999999 29.7060999999999993
  1.6090100000000001  8.4337700000000009  1.2079700000000002
  1.3732800000000001  8.6657899999999994  2.1287100000000003
  1.6215299999999997  7.4796199999999997  1.1095800000000000
  5.6896000000000004  8.0385100000000005  4.4386000000000010
  5.6006700000000000  8.7259100000000007  5.1893599999999998
  8.3000600000000002  2.7805300000000002 26.6144999999999996
  8.1674500000000005  1.8667399999999998 26.3568000000000033
  2.9066999999999998  4.8026999999999997 27.3873999999999995
  2.1997100000000001  5.5103700000000000 27.4387000000000008
  0.1752210000000000  1.9484800000000000 29.1865999999999985
  2.4984099999999998  6.3646900000000004 27.1182000000000016
  9.4378100000000007  2.3241200000000002 29.1113000000000000
  8.7847700000000000  2.5969899999999999 27.4268999999999998
  9.5380199999999995  3.2286800000000002 29.4707000000000043
  6.8761999999999990  4.3441900000000002  1.8325900000000002
  6.0155000000000003  3.9327000000000001  1.5388299999999999
  7.0292199999999987  4.9323899999999998  1.1261399999999999
  5.9637900000000004  0.6928969999999999 28.4547000000000025
  5.8668399999999998  0.7038759999999999 27.5016999999999996
  2.7477700000000000  7.9502399999999991 23.1475000000000044
  2.3293599999999999  7.1397100000000000 22.8038000000000025
  5.5189099999999991  8.1166000000000000 25.4155000000000015
  4.8844000000000003  0.0363957600653947 25.7517999999999994
  5.4408099999999999  1.5335399999999999 28.6645000000000003
  4.7724299999999999  0.5922289999999999 24.9576999999999991
  2.7396600000000002  4.8818299999999999  4.0595900000000000
  2.1959599999999999  5.4447799999999997  3.5499100000000006
  3.7429700000000001  5.0241899999999999  4.0644700000000000
  5.9218899999999994  0.2790830000000000  7.2521700000000004
  5.3931399999999998  0.6422800000000000  6.5626400000000000
  0.2026140000000000  8.2332900000000002  0.2814740000000001
  5.5541900000000002  1.5852699999999997  6.5932800000000000
  9.6178200000000000  7.7877299999999998 29.8523999999999994
  8.7936200000000007  8.2083999999999993  0.0802728421000032
  2.3071600000000001  1.2709799999999998 23.9404000000000039
  2.0016400000000001  1.6626300000000001  6.7196400000000001
  1.5998399999999999  1.5383000000000000  7.6058600000000007
  2.1857400000000000  2.6225299999999998  6.6503500000000013
  9.6215499999999992  3.1090200000000001 22.4041999999999994
  9.1341699999999992  3.8303699999999998 22.7804000000000002
  9.3811800000000005  7.2548399999999997 28.0396000000000036
  9.1800499999999996  6.7898599999999991 27.1745000000000019
  6.3114999999999997  5.6127300000000000  5.7188299999999996
  8.2243700000000004  6.8686900000000000 27.1009999999999991
  6.7285300000000001  5.9372999999999996  6.6042600000000009
  0.0234228221955488  2.5569099999999998 23.0511000000000053
  6.0023700000000000  6.3215199999999996  7.0803600000000007
  0.1215228221955485  4.9536499999999997  0.2865940000000000
  0.0369228221955492  5.7879699999999987 29.8793000000000006
  9.9408300000000001  5.2840999999999996  1.1174299999999999
  4.5307100000000000  2.9283899999999998 24.9725999999999999
  3.0909300000000002  6.5400299999999998 22.7788000000000004
  8.0325900000000008  4.7328599999999996  7.1423000000000005
  8.6214399999999998  3.9035299999999999  7.3781200000000000
  1.8049499999999998  4.9863999999999997  0.4913380000000000
  9.4458199999999994  4.3603399999999999  7.7681600000000000
  2.6470500000000001  5.4429999999999996  0.2142760000000000
  4.4906899999999998  3.8607700000000000 24.6250000000000036
  2.5290400000000002  5.3893799999999992 29.4219000000000044
  6.9123799999999997  6.0517200000000004 29.6958000000000020
  7.7808999999999999  6.4850500000000002 29.5331000000000010
  6.5691400000000000  5.6461999999999994 28.9164000000000030
  7.9116200000000001  8.4367462399346067  2.1717100000000005
  6.5472199999999994  3.9447199999999993 27.0631000000000022
  5.8465699999999998  4.4636100000000001 27.4995000000000047
  0.9261340000000000  6.6311999999999998 23.6482999999999990
  5.1409900000000004  3.8288199999999999 27.7828000000000053
  0.3768610000000000  6.6806200000000002 24.5149000000000044
  0.2462010000000000  5.6913499999999999 24.7804000000000038
  3.1011299999999999  1.1465200000000000 23.3953999999999986
  2.7608699999999997  1.2269899999999998 22.4634999999999998
  4.1525800000000004  2.3814799999999998 24.2973999999999997
  1.4622500000000000  4.4642099999999996  6.5727099999999998
  1.7469699999999999  5.0546699999999998  7.2302100000000005
  1.9379400000000000  4.7139399999999991  5.7532400000000008
  7.6176100000000000  8.6154600000000006 23.3219999999999992
  7.4237799999999998  0.4550540000000000 22.5751999999999988
  7.6739899999999999  7.7211099999999995 22.9237000000000002
  4.6465600000000000  5.4666600000000001 23.1249000000000002
  5.1149300000000002  5.9484699999999995 23.8740999999999985
  5.3321500000000004  5.0258799999999999 22.5632000000000019
  8.4227299999999996  3.8662299999999994  4.1343399999999999
  7.8214100000000002  3.7678199999999999  3.4061900000000005
  8.7086600000000001  2.9888699999999995  4.3142199999999997
 10.0551999999999992  5.8655699999999991  2.9394300000000007
  9.5740499999999997  6.6829299999999998  2.7900499999999999
  9.4314000000000000  5.2053000000000003  3.2972700000000006
