Cu O  H  O  H  O  H  O  H  O  H  O  H  O  H  O  H  O  H  O  H  O  H  O  H  O  H  O  H  O  H  O  H  O  H  O  H  O  H  O  H  O  H  O  H  O  H  O  H  O  H  O  H  O  H  O  H  O  H  O  H  O  H  O  H  O  H  O  H  O  H  O  H  O  H  O  H  O  H  O  H  O  H  O  H  O  H  O  H  O  H  O  H  O  H  O  H  O  H  O  H 
 1.0000000000000000
    10.1403771778044529    0.0000000000000000    0.0000000000000000
     0.0000000000000000    8.7818242399346058    0.0000000000000000
     0.0000000000000000    0.0000000000000000   30.1311271579000000
 Cu  O   H   O   H   O   H   O   H   O   H   O   H   O   H   O   H   O   H   O   H   O   H   O   H   O   H   O   H   O   H   O   H   O   H   O   H   O   H   O   H   O   H   O   H   O   H   O   H   O   H   O   H   O   H   O   H   O   H   O   H   O   H   O   H   O   H   O   H   O   H   O   H   O   H   O   H   O   H   O   H   O   H   O   H   O   H   O   H   O   H   O   H   O   H   O   H   O   H   O   H  
  96   1   2   1   2   1   2   1   2   1   2   1   2   1   2   1   2   1   2   1   2   1   2   1   2   1   2   1   2   1   2   1   1   1   2   1   2   1   3   1   2   1   2   1   2   1   1   1   2   1   2   1   2   1   2   1   2   1   1   1   2   1   3   1   2   1   2   1   2   1   2   1   2   1   2   1   2   1   2   1   2   1   2   1   4   1   2   1   1   1   2   1   2   1   2   1   2   1   2   1   2
Cartesian
  7.0594599999999987  1.0824100000000001  9.8908199999999997
  9.6399399999999993  0.9574649999999999  9.8973800000000001
  2.0168699999999999  0.9940549999999999 10.0530000000000008
  4.5373200000000002  1.0836300000000001  9.9832300000000025
  8.3520699999999994  3.1733400000000000  9.8796599999999994
  0.8002300000000000  3.2617099999999994 10.0305000000000017
  3.1851099999999999  3.2933800000000000  9.9043500000000009
  5.8826999999999998  3.3222900000000002  9.9872800000000002
  9.5295900000000007  5.3806300000000000  9.9039900000000021
  1.8966200000000000  5.4249000000000001  9.8849099999999996
  4.5150100000000002  5.4948599999999992 10.0679000000000016
  7.0903699999999992  5.4135700000000000  9.7712299999999992
  0.6844260000000000  7.5319799999999999  9.8796800000000005
  3.1920199999999999  7.5595699999999999  9.9471399999999992
  5.7410300000000003  7.6516999999999999 10.1362000000000023
  8.3677799999999998  7.6449400000000001  9.8878299999999992
  5.8521900000000011  1.6965100000000000 11.9635999999999996
  8.4070499999999999  1.8215300000000001 12.0127000000000024
  0.7822470000000000  1.7826299999999999 11.9101999999999997
  3.3143799999999999  1.8196000000000001 11.9878999999999998
  7.1135900000000003  3.9956299999999993 12.0145000000000000
  9.5874299999999995  4.0275200000000000 11.9978999999999996
  2.0117699999999998  4.1007499999999997 12.0092000000000017
  4.5224399999999996  3.9398399999999993 11.9192000000000018
  8.2953299999999999  6.1905200000000002 11.9794000000000000
  0.6871849999999999  6.2908099999999996 11.9905000000000026
  3.1758700000000002  6.1346999999999996 11.9175000000000004
  5.8289199999999992  5.9756400000000003 11.9806000000000008
  9.5362299999999998  8.5223200000000006 11.9762000000000004
  1.9988600000000001  8.4786300000000008 11.9920000000000009
  4.4945000000000004  8.2190600000000007 11.9848000000000017
  7.0537400000000003  8.2886600000000001 11.9011000000000013
  5.7039600000000004  0.3659089999999999 14.0306000000000015
  8.2390600000000003  0.3659089999999999 14.0306000000000015
  0.6337739999999999  0.3659089999999999 14.0306000000000015
  3.1688699999999996  0.3659089999999999 14.0306000000000015
  6.9715100000000003  2.5613700000000001 14.0306000000000015
  9.5066000000000006  2.5613700000000001 14.0306000000000015
  1.9013199999999999  2.5613700000000001 14.0306000000000015
  4.4364200000000000  2.5613700000000001 14.0306000000000015
  8.2390600000000003  4.7568199999999994 14.0306000000000015
  0.6337739999999999  4.7568199999999994 14.0306000000000015
  3.1688699999999996  4.7568199999999994 14.0306000000000015
  5.7039600000000004  4.7568199999999994 14.0306000000000015
  9.5066000000000006  6.9522799999999991 14.0306000000000015
  1.9013199999999999  6.9522799999999991 14.0306000000000015
  4.4364200000000000  6.9522799999999991 14.0306000000000015
  6.9715100000000003  6.9522799999999991 14.0306000000000015
  6.9715100000000003  1.0977300000000001 16.1005000000000003
  9.5066000000000006  1.0977300000000001 16.1005000000000003
  1.9013199999999999  1.0977300000000001 16.1005000000000003
  4.4364200000000000  1.0977300000000001 16.1005000000000003
  8.2390600000000003  3.2931800000000000 16.1005000000000003
  0.6337739999999999  3.2931800000000000 16.1005000000000003
  3.1688699999999996  3.2931800000000000 16.1005000000000003
  5.7039600000000004  3.2931800000000000 16.1005000000000003
  9.5066000000000006  5.4886400000000002 16.1005000000000003
  1.9013199999999999  5.4886400000000002 16.1005000000000003
  4.4364200000000000  5.4886400000000002 16.1005000000000003
  6.9715100000000003  5.4886400000000002 16.1005000000000003
  0.6337739999999999  7.6840999999999999 16.1005000000000003
  3.1688699999999996  7.6840999999999999 16.1005000000000003
  5.7039600000000004  7.6840999999999999 16.1005000000000003
  8.2390600000000003  7.6840999999999999 16.1005000000000003
  5.6839000000000004  1.6470899999999999 18.1010999999999989
  8.1950199999999995  1.8395599999999999 18.1924999999999990
  0.7195570000000000  1.6980400000000000 18.1348999999999982
  3.2009599999999998  1.7937500000000000 18.2072000000000003
  6.9876699999999996  4.0062300000000004 18.0543000000000013
  9.6286500000000004  3.9351600000000002 18.2354000000000021
  1.9912099999999999  3.9794600000000000 18.2094999999999985
  4.5838599999999996  3.9076599999999999 18.0879000000000048
  8.4108199999999993  6.1561599999999990 18.3409000000000013
  0.8203179999999999  6.0646599999999999 18.2722000000000016
  3.2781599999999997  6.2493800000000004 18.1365000000000052
  5.7303600000000001  6.2001999999999997 18.1324000000000005
  9.6012799999999991  8.3927800000000001 18.1875000000000000
  1.9766300000000001  8.3556299999999997 18.1519000000000013
  4.3888100000000003  8.3227499999999992 18.2328000000000010
  7.0026000000000002  8.4102899999999998 18.1738999999999997
  5.8143700000000003  0.2985180000000000 20.1642000000000010
  8.2651000000000003  0.3367720000000000 20.2749000000000024
  0.7475760000000000  0.1976470000000000 20.2218000000000018
  3.2119900000000001  0.2793550000000000 20.2468000000000039
  6.9670699999999997  2.4753199999999995 20.1895999999999987
  9.5421099999999992  2.4388500000000000 20.1591999999999985
  1.9535499999999999  2.4761000000000002 20.3261000000000003
  4.4495699999999996  2.5221799999999996 20.4226999999999990
  8.2689900000000005  4.5696800000000000 20.2957000000000001
  0.7998400000000000  4.7707699999999997 20.3618999999999986
  3.2836500000000002  4.6300999999999988 20.3567999999999998
  5.7588800000000004  4.6939299999999999 20.1203000000000038
  9.7498500000000003  6.9756299999999998 20.2348999999999997
  1.9962899999999999  6.8196899999999996 20.1738000000000000
  4.5656900000000000  6.7760100000000003 20.2696000000000041
  7.0274700000000001  6.8921099999999997 20.2015999999999991
  5.4238299999999988  3.2119100000000000  1.2096000000000002
  6.3675400000000000  2.8832100000000001  1.1775899999999999
  5.1881899999999996  3.1009899999999999  0.2827900000000000
  5.4800399999999989  8.2095699999999994  1.8447800000000001
  5.6443099999999999  7.2164499999999991  1.8209000000000002
  4.9419000000000004  8.2410399999999999  2.6183500000000004
  5.1906299999999996  5.5659400000000003 26.6342999999999996
  1.2284700000000000  6.7270399999999997 24.6724999999999994
  4.4408700000000003  6.0506899999999995 26.9816000000000038
  4.1336899999999996  0.5810779999999999 23.6058999999999983
  4.7057200000000003  0.5932050000000000 22.8342000000000027
  4.6578099999999996  0.3983010000000000 24.4455000000000027
  8.1164900000000006  7.4716199999999997 29.0147000000000013
  8.4600899999999992  7.7387099999999993 29.8906000000000027
  7.1805800000000000  7.8350400000000002 28.9207000000000001
  2.3307199999999999  2.7541099999999998 23.7067000000000014
  6.2097800000000003  4.3372500000000000  7.2810300000000012
  1.7550300000000001  2.7180499999999999 22.9128000000000007
  7.6028300000000000  0.9598160000000000  2.9021300000000005
  9.2851900000000001  6.1772499999999999  0.7621360000000000
  6.8452900000000003  0.2821970000000000  2.7361100000000005
  6.5365900000000003  5.1320100000000002  7.6819000000000006
  6.9050099999999999  6.1223000000000001  3.7974400000000004
  5.8781099999999995  5.7758700000000003  7.4347099999999999
  3.7928199999999999  1.9603600000000001  3.9732900000000000
  4.3293299999999997  2.5506199999999994  3.4442600000000003
  7.5165699999999998  0.0368757600653950  6.0902400000000005
  6.6797599999999999  0.1802310000000000  6.5166300000000001
  6.8678600000000003  0.2841550000000000  7.4311200000000008
  2.2227899999999998  6.5526000000000000 26.7478000000000016
  7.1008599999999991  5.9929100000000002  4.7450300000000007
  6.8547300000000000  5.0904699999999998  4.8772600000000006
  4.1491600000000002  7.8108199999999997  5.2830399999999997
  4.2184200000000001  2.8927700000000001 28.6953999999999994
  4.8464999999999998  3.3645800000000001 28.1539000000000037
  3.8789500000000001  2.0579200000000002 28.2407000000000004
  8.8648299999999995  6.7617500000000001  1.4046799999999999
  3.0486599999999999  2.0999200000000000 23.5994999999999990
  9.4958600000000004  6.9432600000000004  2.1022200000000004
  2.1114899999999999  2.3123300000000002  6.4500000000000002
  2.5420099999999999  1.9488500000000000  5.6055600000000005
  2.4003800000000002  3.2455400000000001  6.4398000000000000
  1.4638500000000001  5.8825000000000003 25.2061999999999991
  7.3046600000000010  1.6829099999999997  3.4785200000000001
  2.1499999999999999  5.5005899999999999 24.6525999999999996
  0.3712100000000000  8.6264699999999994  6.3593800000000007
  9.9575300000000002  7.7883399999999998  6.3818400000000004
  3.1637800000000000  5.1521499999999989  3.6308000000000002
  2.5900999999999996  4.5995200000000001  3.0807099999999998
  3.1425800000000002  6.0624599999999997  3.2607699999999999
  8.5096799999999995  1.4924099999999998  0.2505980000000000
  7.7133700000000003  1.1058300000000001 29.9754000000000040
  8.3209400000000002  1.2343500000000001  1.2036800000000001
  1.6545200000000000  1.1866300000000001 25.7088000000000001
  0.7423520000000000  0.9758070000000000 26.0168000000000035
  1.6275800000000000  2.0105200000000001 25.2179000000000038
 10.0507000000000009  0.5116480000000000  6.8214000000000006
  2.6951200000000002  6.7434000000000003 27.5225000000000044
  2.8807100000000001  7.7103799999999998 27.5030000000000037
  5.9687000000000001  4.7092200000000002 24.4570000000000007
  5.8318700000000003  4.6243400000000001 23.5124000000000031
  5.1002900000000002  5.2700500000000003 23.3181000000000012
  4.3021000000000003  1.2001399999999998  4.3097200000000004
  7.7273500000000004  3.0887999999999995  4.8822000000000001
  8.4253800000000005  3.5804700000000000  4.4010900000000008
  8.1503099999999993  2.7017400000000000  5.6759899999999996
  4.8173800000000000  8.0251099999999997  4.5673500000000002
  5.6433600000000004  7.8953800000000003  4.9746499999999996
  9.7143800000000002  0.3699140000000000 26.9481000000000037
  9.5493100000000002  8.6691400000000005 27.8281000000000027
  6.3860600000000005  0.0448399000000000 26.7061999999999991
  6.0166500000000003  8.4741900000000001 25.8732000000000006
  7.9350399999999999  7.0595200000000000 22.5639000000000038
  6.6813300000000000  7.9341699999999999 25.4915000000000020
  7.8893000000000004  6.1101799999999997 22.4849000000000032
  8.8726299999999991  0.8618659999999999 26.8037000000000027
  7.1206699999999996  5.6081799999999999 22.8340999999999994
  8.6620299999999997  6.8273900000000003 25.6568000000000005
  9.3831799999999994  7.4162699999999999 26.0584999999999987
  8.8992599999999999  6.0147500000000003 26.2277000000000022
  1.7785200000000001  3.5150199999999998  1.9109200000000000
  1.8613900000000001  2.5243500000000001  2.0522200000000002
  9.3691200000000006  0.0313357600653946 22.8928000000000011
  8.5523399999999992  0.0512413000000000 22.4378999999999991
  5.5390500000000005  0.0213737000000000  0.0088090000000000
  6.0622400000000001  0.4455950000000000 29.4076999999999984
  2.0776699999999999  3.6980900000000001  1.0185800000000000
  5.4455700000000000  0.4611310000000000 28.6810000000000009
  9.5265699999999995  2.4893500000000000  7.1380000000000008
  9.5561100000000003  2.6859899999999999  8.0823400000000003
  0.3409770000000000  2.5631100000000000  6.9090100000000012
  2.4394999999999998  5.3995600000000001 29.0044000000000040
  2.2465700000000002  4.4839399999999987 29.1933000000000007
  7.8960900000000001  4.8854499999999987 27.4314000000000036
  2.9532299999999996  3.9215200000000001 28.7858000000000018
  8.7657799999999995  4.5796400000000004 27.1595000000000049
  9.1478199999999994  4.6709699999999996 28.0513000000000048
  2.4492300000000000  0.8045339999999999 28.4311000000000007
  2.8999199999999998  7.7556500000000002  6.4064600000000009
  1.9519100000000000  8.1097800000000007  6.5529599999999997
  3.5111800000000000  7.8458199999999998  7.1888300000000012
  3.3799599999999996  5.3026799999999996 23.1766000000000005
  3.0984400000000001  4.3595800000000002 23.2894000000000041
  2.9345300000000001  5.0573699999999988  5.2401799999999996
  3.1950599999999998  4.9924599999999995  6.2222400000000002
  7.1788699999999990  5.6306099999999999  1.4560999999999999
  3.2522399999999996  5.9874000000000001  6.3343600000000002
  6.3194499999999998  5.6365400000000001  1.8901000000000001
  3.1260800000000000  5.6043099999999990 22.2840000000000025
  5.8590999999999998  4.7786799999999996  1.6081100000000002
  7.3500800000000002  2.0108899999999998 26.8924999999999983
  7.6520499999999991  2.9331100000000001 26.9760999999999989
  7.1752399999999996  1.9968600000000001 25.9179000000000030
  4.3435600000000001  1.1328700000000000  7.7838900000000013
  8.1036699999999993  0.8061580000000000 22.8258000000000010
  9.8465399999999992  3.6459899999999998  0.0084728421000029
  9.8942099999999993  4.4957900000000004 29.7029000000000032
  2.7633899999999998  1.0380499999999999  2.5484100000000001
  0.7074600000000000  4.5175500000000000 29.4018000000000050
  1.9374699999999998  0.8147180000000001  2.0110500000000000
  4.8832100000000001  1.7710500000000000  7.1521700000000008
  1.3105099999999998  0.5298520000000000  2.7256800000000005
  9.1570999999999998  6.3248299999999995  6.2938800000000006
  8.3898100000000007  6.2526200000000003  5.7012099999999997
  8.6251499999999997  6.6036299999999999  7.1115399999999998
  5.8851299999999993  6.2456600000000000 26.5440000000000040
  1.4605699999999999  0.7035150000000000  0.1742940000000000
  1.0118799999999999  0.6224530000000000 29.4857000000000014
  9.1309699999999996  4.8193099999999998 23.6791000000000018
  0.1629160000000000  0.6561510000000000 29.7696000000000041
  9.3906799999999997  4.0297900000000002 24.2332999999999998
  9.9692561778044535  4.4666800000000002 24.8345999999999982
  3.1802800000000002  0.6518450000000000 27.8274000000000044
  2.8070400000000002  1.0021599999999999 27.0132000000000048
  3.4013899999999997  1.3040499999999999  7.5376300000000009
  1.0376600000000000  8.1756799999999998 23.5653000000000041
  1.6530100000000001  7.8458199999999998 22.8893999999999984
  1.5712600000000001  0.0207347000000000 24.1369000000000042
  9.9295799999999996  4.2621500000000001  3.8118100000000004
  0.3681990000000000  4.2176099999999996  3.0487099999999998
  0.2009220000000000  4.7544199999999996  4.4925600000000010
  0.0032228221955458  8.3805899999999998  3.4797000000000002
  9.3844200000000004  0.1277557600653942  3.2603300000000006
  0.1417780000000000  8.3967799999999997  4.4614000000000003
  7.4208999999999996  2.3856199999999999 23.8591000000000051
  6.8832800000000001  2.8325300000000002 23.2421000000000006
  8.1995299999999993  2.9598999999999998 24.0604000000000013
  5.3880399999999993  3.2592400000000001  6.4241700000000010
  4.6975400000000000  3.8192900000000001  6.1013000000000002
  6.1337000000000002  3.0794600000000001  5.7708200000000005
Cartesian
  0.0000000000000000  0.0000000000000000  0.0000000000000000
  0.0000000000000000  0.0000000000000000  0.0000000000000000
  0.0000000000000000  0.0000000000000000  0.0000000000000000
  0.0000000000000000  0.0000000000000000  0.0000000000000000
  0.0000000000000000  0.0000000000000000  0.0000000000000000
  0.0000000000000000  0.0000000000000000  0.0000000000000000
  0.0000000000000000  0.0000000000000000  0.0000000000000000
  0.0000000000000000  0.0000000000000000  0.0000000000000000
  0.0000000000000000  0.0000000000000000  0.0000000000000000
  0.0000000000000000  0.0000000000000000  0.0000000000000000
  0.0000000000000000  0.0000000000000000  0.0000000000000000
  0.0000000000000000  0.0000000000000000  0.0000000000000000
  0.0000000000000000  0.0000000000000000  0.0000000000000000
  0.0000000000000000  0.0000000000000000  0.0000000000000000
  0.0000000000000000  0.0000000000000000  0.0000000000000000
  0.0000000000000000  0.0000000000000000  0.0000000000000000
  0.0000000000000000  0.0000000000000000  0.0000000000000000
  0.0000000000000000  0.0000000000000000  0.0000000000000000
  0.0000000000000000  0.0000000000000000  0.0000000000000000
  0.0000000000000000  0.0000000000000000  0.0000000000000000
  0.0000000000000000  0.0000000000000000  0.0000000000000000
  0.0000000000000000  0.0000000000000000  0.0000000000000000
  0.0000000000000000  0.0000000000000000  0.0000000000000000
  0.0000000000000000  0.0000000000000000  0.0000000000000000
  0.0000000000000000  0.0000000000000000  0.0000000000000000
  0.0000000000000000  0.0000000000000000  0.0000000000000000
  0.0000000000000000  0.0000000000000000  0.0000000000000000
  0.0000000000000000  0.0000000000000000  0.0000000000000000
  0.0000000000000000  0.0000000000000000  0.0000000000000000
  0.0000000000000000  0.0000000000000000  0.0000000000000000
  0.0000000000000000  0.0000000000000000  0.0000000000000000
  0.0000000000000000  0.0000000000000000  0.0000000000000000
  0.0000000000000000  0.0000000000000000  0.0000000000000000
  0.0000000000000000  0.0000000000000000  0.0000000000000000
  0.0000000000000000  0.0000000000000000  0.0000000000000000
  0.0000000000000000  0.0000000000000000  0.0000000000000000
  0.0000000000000000  0.0000000000000000  0.0000000000000000
  0.0000000000000000  0.0000000000000000  0.0000000000000000
  0.0000000000000000  0.0000000000000000  0.0000000000000000
  0.0000000000000000  0.0000000000000000  0.0000000000000000
  0.0000000000000000  0.0000000000000000  0.0000000000000000
  0.0000000000000000  0.0000000000000000  0.0000000000000000
  0.0000000000000000  0.0000000000000000  0.0000000000000000
  0.0000000000000000  0.0000000000000000  0.0000000000000000
  0.0000000000000000  0.0000000000000000  0.0000000000000000
  0.0000000000000000  0.0000000000000000  0.0000000000000000
  0.0000000000000000  0.0000000000000000  0.0000000000000000
  0.0000000000000000  0.0000000000000000  0.0000000000000000
  0.0000000000000000  0.0000000000000000  0.0000000000000000
  0.0000000000000000  0.0000000000000000  0.0000000000000000
  0.0000000000000000  0.0000000000000000  0.0000000000000000
  0.0000000000000000  0.0000000000000000  0.0000000000000000
  0.0000000000000000  0.0000000000000000  0.0000000000000000
  0.0000000000000000  0.0000000000000000  0.0000000000000000
  0.0000000000000000  0.0000000000000000  0.0000000000000000
  0.0000000000000000  0.0000000000000000  0.0000000000000000
  0.0000000000000000  0.0000000000000000  0.0000000000000000
  0.0000000000000000  0.0000000000000000  0.0000000000000000
  0.0000000000000000  0.0000000000000000  0.0000000000000000
  0.0000000000000000  0.0000000000000000  0.0000000000000000
  0.0000000000000000  0.0000000000000000  0.0000000000000000
  0.0000000000000000  0.0000000000000000  0.0000000000000000
  0.0000000000000000  0.0000000000000000  0.0000000000000000
  0.0000000000000000  0.0000000000000000  0.0000000000000000
  0.0000000000000000  0.0000000000000000  0.0000000000000000
  0.0000000000000000  0.0000000000000000  0.0000000000000000
  0.0000000000000000  0.0000000000000000  0.0000000000000000
  0.0000000000000000  0.0000000000000000  0.0000000000000000
  0.0000000000000000  0.0000000000000000  0.0000000000000000
  0.0000000000000000  0.0000000000000000  0.0000000000000000
  0.0000000000000000  0.0000000000000000  0.0000000000000000
  0.0000000000000000  0.0000000000000000  0.0000000000000000
  0.0000000000000000  0.0000000000000000  0.0000000000000000
  0.0000000000000000  0.0000000000000000  0.0000000000000000
  0.0000000000000000  0.0000000000000000  0.0000000000000000
  0.0000000000000000  0.0000000000000000  0.0000000000000000
  0.0000000000000000  0.0000000000000000  0.0000000000000000
  0.0000000000000000  0.0000000000000000  0.0000000000000000
  0.0000000000000000  0.0000000000000000  0.0000000000000000
  0.0000000000000000  0.0000000000000000  0.0000000000000000
  0.0000000000000000  0.0000000000000000  0.0000000000000000
  0.0000000000000000  0.0000000000000000  0.0000000000000000
  0.0000000000000000  0.0000000000000000  0.0000000000000000
  0.0000000000000000  0.0000000000000000  0.0000000000000000
  0.0000000000000000  0.0000000000000000  0.0000000000000000
  0.0000000000000000  0.0000000000000000  0.0000000000000000
  0.0000000000000000  0.0000000000000000  0.0000000000000000
  0.0000000000000000  0.0000000000000000  0.0000000000000000
  0.0000000000000000  0.0000000000000000  0.0000000000000000
  0.0000000000000000  0.0000000000000000  0.0000000000000000
  0.0000000000000000  0.0000000000000000  0.0000000000000000
  0.0000000000000000  0.0000000000000000  0.0000000000000000
  0.0000000000000000  0.0000000000000000  0.0000000000000000
  0.0000000000000000  0.0000000000000000  0.0000000000000000
  0.0000000000000000  0.0000000000000000  0.0000000000000000
  0.0000000000000000  0.0000000000000000  0.0000000000000000
  0.0000000000000000  0.0000000000000000  0.0000000000000000
  0.0000000000000000  0.0000000000000000  0.0000000000000000
  0.0000000000000000  0.0000000000000000  0.0000000000000000
  0.0000000000000000  0.0000000000000000  0.0000000000000000
  0.0000000000000000  0.0000000000000000  0.0000000000000000
  0.0000000000000000  0.0000000000000000  0.0000000000000000
  0.0000000000000000  0.0000000000000000  0.0000000000000000
  0.0000000000000000  0.0000000000000000  0.0000000000000000
  0.0000000000000000  0.0000000000000000  0.0000000000000000
  0.0000000000000000  0.0000000000000000  0.0000000000000000
  0.0000000000000000  0.0000000000000000  0.0000000000000000
  0.0000000000000000  0.0000000000000000  0.0000000000000000
  0.0000000000000000  0.0000000000000000  0.0000000000000000
  0.0000000000000000  0.0000000000000000  0.0000000000000000
  0.0000000000000000  0.0000000000000000  0.0000000000000000
  0.0000000000000000  0.0000000000000000  0.0000000000000000
  0.0000000000000000  0.0000000000000000  0.0000000000000000
  0.0000000000000000  0.0000000000000000  0.0000000000000000
  0.0000000000000000  0.0000000000000000  0.0000000000000000
  0.0000000000000000  0.0000000000000000  0.0000000000000000
  0.0000000000000000  0.0000000000000000  0.0000000000000000
  0.0000000000000000  0.0000000000000000  0.0000000000000000
  0.0000000000000000  0.0000000000000000  0.0000000000000000
  0.0000000000000000  0.0000000000000000  0.0000000000000000
  0.0000000000000000  0.0000000000000000  0.0000000000000000
  0.0000000000000000  0.0000000000000000  0.0000000000000000
  0.0000000000000000  0.0000000000000000  0.0000000000000000
  0.0000000000000000  0.0000000000000000  0.0000000000000000
  0.0000000000000000  0.0000000000000000  0.0000000000000000
  0.0000000000000000  0.0000000000000000  0.0000000000000000
  0.0000000000000000  0.0000000000000000  0.0000000000000000
  0.0000000000000000  0.0000000000000000  0.0000000000000000
  0.0000000000000000  0.0000000000000000  0.0000000000000000
  0.0000000000000000  0.0000000000000000  0.0000000000000000
  0.0000000000000000  0.0000000000000000  0.0000000000000000
  0.0000000000000000  0.0000000000000000  0.0000000000000000
  0.0000000000000000  0.0000000000000000  0.0000000000000000
  0.0000000000000000  0.0000000000000000  0.0000000000000000
  0.0000000000000000  0.0000000000000000  0.0000000000000000
  0.0000000000000000  0.0000000000000000  0.0000000000000000
  0.0000000000000000  0.0000000000000000  0.0000000000000000
  0.0000000000000000  0.0000000000000000  0.0000000000000000
  0.0000000000000000  0.0000000000000000  0.0000000000000000
  0.0000000000000000  0.0000000000000000  0.0000000000000000
  0.0000000000000000  0.0000000000000000  0.0000000000000000
  0.0000000000000000  0.0000000000000000  0.0000000000000000
  0.0000000000000000  0.0000000000000000  0.0000000000000000
  0.0000000000000000  0.0000000000000000  0.0000000000000000
  0.0000000000000000  0.0000000000000000  0.0000000000000000
  0.0000000000000000  0.0000000000000000  0.0000000000000000
  0.0000000000000000  0.0000000000000000  0.0000000000000000
  0.0000000000000000  0.0000000000000000  0.0000000000000000
  0.0000000000000000  0.0000000000000000  0.0000000000000000
  0.0000000000000000  0.0000000000000000  0.0000000000000000
  0.0000000000000000  0.0000000000000000  0.0000000000000000
  0.0000000000000000  0.0000000000000000  0.0000000000000000
  0.0000000000000000  0.0000000000000000  0.0000000000000000
  0.0000000000000000  0.0000000000000000  0.0000000000000000
  0.0000000000000000  0.0000000000000000  0.0000000000000000
  0.0000000000000000  0.0000000000000000  0.0000000000000000
  0.0000000000000000  0.0000000000000000  0.0000000000000000
  0.0000000000000000  0.0000000000000000  0.0000000000000000
  0.0000000000000000  0.0000000000000000  0.0000000000000000
  0.0000000000000000  0.0000000000000000  0.0000000000000000
  0.0000000000000000  0.0000000000000000  0.0000000000000000
  0.0000000000000000  0.0000000000000000  0.0000000000000000
  0.0000000000000000  0.0000000000000000  0.0000000000000000
  0.0000000000000000  0.0000000000000000  0.0000000000000000
  0.0000000000000000  0.0000000000000000  0.0000000000000000
  0.0000000000000000  0.0000000000000000  0.0000000000000000
  0.0000000000000000  0.0000000000000000  0.0000000000000000
  0.0000000000000000  0.0000000000000000  0.0000000000000000
  0.0000000000000000  0.0000000000000000  0.0000000000000000
  0.0000000000000000  0.0000000000000000  0.0000000000000000
  0.0000000000000000  0.0000000000000000  0.0000000000000000
  0.0000000000000000  0.0000000000000000  0.0000000000000000
  0.0000000000000000  0.0000000000000000  0.0000000000000000
  0.0000000000000000  0.0000000000000000  0.0000000000000000
  0.0000000000000000  0.0000000000000000  0.0000000000000000
  0.0000000000000000  0.0000000000000000  0.0000000000000000
  0.0000000000000000  0.0000000000000000  0.0000000000000000
  0.0000000000000000  0.0000000000000000  0.0000000000000000
  0.0000000000000000  0.0000000000000000  0.0000000000000000
  0.0000000000000000  0.0000000000000000  0.0000000000000000
  0.0000000000000000  0.0000000000000000  0.0000000000000000
  0.0000000000000000  0.0000000000000000  0.0000000000000000
  0.0000000000000000  0.0000000000000000  0.0000000000000000
  0.0000000000000000  0.0000000000000000  0.0000000000000000
  0.0000000000000000  0.0000000000000000  0.0000000000000000
  0.0000000000000000  0.0000000000000000  0.0000000000000000
  0.0000000000000000  0.0000000000000000  0.0000000000000000
  0.0000000000000000  0.0000000000000000  0.0000000000000000
  0.0000000000000000  0.0000000000000000  0.0000000000000000
  0.0000000000000000  0.0000000000000000  0.0000000000000000
  0.0000000000000000  0.0000000000000000  0.0000000000000000
  0.0000000000000000  0.0000000000000000  0.0000000000000000
  0.0000000000000000  0.0000000000000000  0.0000000000000000
  0.0000000000000000  0.0000000000000000  0.0000000000000000
  0.0000000000000000  0.0000000000000000  0.0000000000000000
  0.0000000000000000  0.0000000000000000  0.0000000000000000
  0.0000000000000000  0.0000000000000000  0.0000000000000000
  0.0000000000000000  0.0000000000000000  0.0000000000000000
  0.0000000000000000  0.0000000000000000  0.0000000000000000
  0.0000000000000000  0.0000000000000000  0.0000000000000000
  0.0000000000000000  0.0000000000000000  0.0000000000000000
  0.0000000000000000  0.0000000000000000  0.0000000000000000
  0.0000000000000000  0.0000000000000000  0.0000000000000000
  0.0000000000000000  0.0000000000000000  0.0000000000000000
  0.0000000000000000  0.0000000000000000  0.0000000000000000
  0.0000000000000000  0.0000000000000000  0.0000000000000000
  0.0000000000000000  0.0000000000000000  0.0000000000000000
  0.0000000000000000  0.0000000000000000  0.0000000000000000
  0.0000000000000000  0.0000000000000000  0.0000000000000000
  0.0000000000000000  0.0000000000000000  0.0000000000000000
  0.0000000000000000  0.0000000000000000  0.0000000000000000
  0.0000000000000000  0.0000000000000000  0.0000000000000000
  0.0000000000000000  0.0000000000000000  0.0000000000000000
  0.0000000000000000  0.0000000000000000  0.0000000000000000
  0.0000000000000000  0.0000000000000000  0.0000000000000000
  0.0000000000000000  0.0000000000000000  0.0000000000000000
  0.0000000000000000  0.0000000000000000  0.0000000000000000
  0.0000000000000000  0.0000000000000000  0.0000000000000000
  0.0000000000000000  0.0000000000000000  0.0000000000000000
  0.0000000000000000  0.0000000000000000  0.0000000000000000
  0.0000000000000000  0.0000000000000000  0.0000000000000000
  0.0000000000000000  0.0000000000000000  0.0000000000000000
  0.0000000000000000  0.0000000000000000  0.0000000000000000